  864
  Step: 100
H  15.82  20.02  23.85
H   6.60  24.39  11.57
H   6.30  19.63   2.48
H  18.84   3.12  11.93
H  17.12  32.15  16.10
H  31.67   2.12   7.32
H   6.76  16.59  17.03
H  32.80  12.34  30.39
H  23.07  12.87  26.78
H   3.13  18.78  14.53
H  29.33  13.31  30.19
H  10.43  16.65  22.72
H  11.38  24.20  32.41
H  24.86   4.27  22.64
H  21.69  13.44  26.40
H  11.21   4.11  23.02
H  11.10  25.09  26.25
H  24.65  29.51  12.29
H  19.01  27.48   6.92
H  21.82  28.31   4.89
H  12.00   6.83   3.60
H  30.00   9.43  13.71
H  29.49  11.95  26.93
H  18.59  14.59  30.29
H  32.30  28.81  23.41
H  23.20  18.43  27.64
H  19.24  32.93  27.39
H  27.65   1.86  27.98
H  16.13  27.70   4.98
H   8.37   7.91  31.56
H   7.49  22.20   4.13
H   2.06  18.56  15.33
H  26.47   1.59  18.33
H   8.52  17.55  20.26
H  28.30  10.12  14.68
H  11.05  18.00  21.63
H  28.87  22.05  32.31
H  25.70   0.40  32.56
H   5.37  15.71  17.01
H  18.15  29.93   4.03
H  29.22   7.25  14.07
H  32.25  32.43  22.97
H  24.62   6.51  22.66
H   7.99  25.88   4.31
H   3.44  23.10  14.41
H  16.45  11.38  18.81
H   3.64  24.64  11.12
H  27.21   0.54  19.90
H   9.03  17.85  19.27
H  16.79  22.84  26.28
H   3.76  28.40  12.86
H   8.61   8.20  29.07
H  32.53   1.97   8.01
H   7.02  23.83   2.41
H  15.76   9.97   3.59
H  23.18   8.85  13.03
H   9.49  14.57   1.61
H   0.95  19.59  13.70
H   4.02  24.50  22.32
H  17.92  21.13  15.31
H  29.12  24.22  27.63
H   1.73  19.71  14.85
H   7.75  24.45  11.71
H  30.46  11.51  29.63
H  13.72  10.42  17.67
H  30.89  16.18  16.64
H  22.42   3.04  10.49
H   4.35  23.00   0.33
H  27.78  21.34  31.86
H  11.48  27.16  32.68
H   5.26   0.29   6.21
H   2.13  18.61  16.34
H   5.92  29.64  19.83
H   5.97  14.77  30.05
H   2.82  16.90  19.25
H  25.09   3.52  29.04
H  19.17  27.49  11.26
H  20.56   6.01  29.64
H  26.10   3.51  28.42
H  31.49  13.92  24.28
H   5.43  12.40  29.26
H   1.43  19.18  15.82
H  29.37  10.23  15.43
H  24.53  11.49  16.58
H  15.45  10.37   4.79
H  17.05  26.40   6.17
H  15.94  22.61  25.55
H  19.45  25.15   9.64
H  16.28  11.57  16.32
H  11.58  24.94   1.00
H  29.34  27.17  29.67
H  17.26  12.00  24.30
H  16.46  28.79   7.87
H  17.90  28.98   6.91
H  11.18  22.52   9.09
H  11.90  25.37  32.29
H  22.70  13.70  25.84
H  12.21  13.06  22.62
H   9.00  18.08  21.91
H   4.51  10.23  31.99
H  22.02  28.44  32.77
H  26.84   2.89  29.17
H  11.50  26.71  31.15
H  27.07   7.98  32.65
H   6.68  24.80  12.56
H  31.81   3.26   5.27
H  26.64  23.64   3.81
H  30.23  12.48  26.38
H   5.52  22.44  12.16
H  15.08  10.40  17.12
H  16.04  21.52  27.78
H  27.76   0.76  28.56
H   3.06  22.71  31.05
H  30.86  12.52  29.47
H  11.07  26.29  32.06
H  13.62  10.77  18.85
H   4.02  13.70  30.81
H  27.78  11.04  30.06
H  10.62   7.87  19.15
H  10.02  16.40  10.75
H   3.79  24.41  12.18
H  10.97  24.87  31.63
H  23.69  15.23  27.76
H  16.38  23.67  26.95
H  16.20  11.24  15.29
H  24.72  12.79  26.87
H  32.42  30.03  30.72
H   9.38  17.50  21.12
H  30.54  32.99   8.77
H  27.69   9.71  15.62
H  27.74   2.49  24.61
H   2.81  14.25   4.91
H  14.83  22.73  26.25
H  24.46  24.03  29.76
H   5.11  24.28   9.74
H  30.01  13.42  31.18
H   5.62  13.40  29.60
H  27.44  14.55   3.26
H  14.61  19.76   2.27
H  22.66   4.45  18.10
H  27.96   1.30  29.57
H   1.47   8.32  31.19
H  19.67  28.41  10.70
H  14.96  19.05  30.25
H  19.57  28.48   4.92
H   6.76  17.66  19.19
H   3.35  12.83  30.95
H  11.36  10.15  15.18
H   2.05  17.95  13.37
H  28.97   6.57  13.28
H   2.97  17.76  15.61
H   0.30  25.30   1.41
H  25.80   1.79  29.69
H  16.12  24.30  27.81
H   7.37   4.02  25.42
H  17.67  28.56   5.69
H  26.77   1.86  28.75
H  17.14  22.30  28.00
H  22.34  29.37   4.97
H   6.55  31.92   6.00
H   5.41  13.74  30.65
H  29.85  11.54  27.94
H   4.16  10.81  30.74
H  19.88  31.21   6.32
H  19.22  26.31  10.82
H   7.43  19.41   1.87
H   6.54   9.79  20.95
H   4.14   5.29  10.18
H  12.38  25.40  33.34
H   7.88  20.53   3.28
H  17.66  32.60   4.31
H   3.70  27.40   7.98
H  10.34  27.21  32.17
H  10.37  17.03  20.79
H  28.35   5.58   3.82
H   9.55  15.25  21.59
H  14.95  11.45  18.63
H  10.14  13.33  13.34
H   9.06  31.64  29.29
H  24.30   9.25  31.16
H   9.94  18.65  28.13
H  10.97  16.22  20.90
H   0.86  17.58  13.62
H   3.59  19.84  14.70
H  12.64  29.42   6.59
H   4.23  14.70  31.73
H   9.02   4.14  25.61
H  33.43   9.58  21.97
H  31.55  13.38  29.23
H   9.46  18.54  29.64
H  24.25  11.74  27.69
H   1.12  11.97   0.29
H  10.73  26.34  21.83
H  20.34  21.08  10.21
H   4.87  10.09  17.98
H  32.23   8.96   5.70
H   8.60  24.67   9.85
H  17.91  27.77   6.42
H   9.68  15.06   5.86
H  15.32  21.58  26.46
H   4.80  22.48  11.26
H  31.05  24.85  30.46
H  10.74  17.77  23.05
H   6.34  20.07   5.56
H  24.16   1.23   3.08
H   9.02  18.43  20.79
H  15.65   1.98  31.81
H   6.67  20.12   1.52
H   4.64  12.27  28.38
H  30.48   6.78  28.89
H   9.41   3.28  26.27
H  20.48  12.35  11.53
H  27.87  21.98  33.15
H  21.19  25.23  27.97
H  14.83  23.07  27.98
H  14.11  23.10  26.90
H  23.82  11.00  13.70
H  33.31   1.33   6.46
H  22.40  26.49  10.77
H   9.88  18.42  21.53
H  21.78  13.86  27.41
H  14.21   3.31  32.10
H  19.23  27.23  23.28
H   5.09   7.62  29.44
H   1.41   2.46   7.85
H  10.11  17.32  21.76
H   6.63  20.84   0.62
H  11.08  13.09  16.06
H  32.02   4.00   6.28
H  23.85  12.28  26.25
H  21.64  33.15  23.73
H  14.67  10.46  18.27
H  30.22   8.98  12.66
H  18.58  33.46  10.70
H  29.39  12.47  27.85
H   3.37  14.33  10.65
H  10.66  19.60   7.94
H  31.76   4.30  30.07
H  14.67   6.83  15.31
H   9.27  15.42  25.87
H   6.14  25.60  10.66
H  31.21  12.74  28.30
H  31.46  13.58  15.47
H  30.85   8.51  23.65
H   9.30  15.16  24.82
H  21.16  15.64  26.66
H  28.16   2.18  14.69
H   4.09  17.62  15.66
H   6.61  28.82  14.58
H   7.06  23.81  12.41
H  33.27   4.09   4.77
H  10.21  28.07  32.99
H  17.37  25.33  17.20
H  31.26   2.52   6.19
H  21.14  16.57  29.40
H   1.68  15.02  29.66
H  27.16   3.33  23.86
H   6.94  28.32  12.86
H  10.90  25.88   0.88
H  16.72  26.71   5.05
H  21.27  32.43  15.78
H  17.66  27.84  27.39
H   0.44   0.74  17.59
H   7.23  25.08  10.79
H  14.75  13.06  16.60
H  24.68  13.55  16.78
H  16.30  20.82  26.99
H  15.78   4.42  10.84
H  18.88  12.51   3.60
H  26.18  26.19  19.24
H   5.26   9.34  21.27
H   5.09  23.43  11.91
H  16.32   7.66   0.99
H   4.37   3.61   1.13
H  16.37  22.96  27.72
H  21.87  15.64  27.72
H  18.20  14.37   0.76
H  10.07  26.16  32.25
H  11.01  27.67  25.82
H   4.73   3.17  24.22
H  30.83   9.16  14.66
H  29.57   8.48  13.75
H  21.66  31.28  11.88
H   0.55   3.75   5.49
H  22.15  14.53  28.77
H   7.62  22.22   1.40
H  33.10  20.14  29.81
H  18.13  29.76   5.13
H  16.99  29.48   6.09
H  29.26   9.18  13.08
H  26.60   1.81  27.58
H  15.75  10.76  19.42
H   6.35  14.79  16.78
H  16.60  27.54   4.08
H  24.05  26.25   3.60
H   3.71  12.99  29.84
H  11.55  30.67  10.05
H  16.46  21.98  26.85
H   0.40  19.96  31.86
H  15.62  10.89  18.06
H  19.35  14.57  17.79
H   8.39  18.02  13.06
H   2.45  20.51  14.87
H  29.75   9.97  12.23
H  32.27   4.91   3.89
H   4.52  13.61  29.14
H  32.51   1.09   7.17
H  30.52  29.21   2.47
H   3.64  20.48  11.63
H   7.61  20.76   1.23
H  27.70  19.89  25.04
H   1.01  14.35  18.97
H  29.20  28.64   7.41
H  29.17   7.79  10.62
H   1.80  31.50   9.54
H  16.32  27.91   7.33
H   0.54  16.78  17.22
H  23.60   2.50  22.97
H  27.58   0.34  29.52
H   6.53  32.99  32.28
H   4.72  13.08  30.22
H  11.02  18.17  20.32
H   6.29  22.12   1.72
H  17.48  29.19   4.50
H   2.99  14.04  30.34
H  30.15  20.84  30.17
H  10.81  26.39  25.32
H  17.42  33.14  17.86
H   5.44  16.13  13.98
H  19.70   3.45  20.32
H  26.48   0.09   5.99
H  19.28  11.37   6.46
H  24.34   5.66   7.38
H  12.65  26.70  33.42
H  23.45  21.19  23.16
H  18.80   9.63  13.36
H  21.29  31.67  14.93
H  17.62  28.09   7.53
H   5.36  16.97   6.27
H   5.20  15.10  29.28
H   6.45  13.78  30.35
H  32.50  22.34   9.98
H  12.38  25.83   2.42
H  22.60  28.16   5.57
H   6.10   1.66  13.44
H   7.74  16.66  20.66
H  14.80   4.37  31.24
H   2.32  12.59  24.19
H  30.20  28.67   6.96
H  22.74  12.59  25.74
H  25.59   4.46  28.56
H  31.03   9.67  13.24
H  10.36  24.10  32.92
H  21.27  26.22  10.62
H  29.73   8.94  22.60
H  23.09  20.20   4.91
H   4.35  12.17  30.79
H   3.32  12.04  20.88
H  19.16  29.39   5.45
H  15.24   8.02   1.10
H  19.49  22.47  29.67
H  24.73   1.56  29.94
H  29.59  20.69  31.25
H   2.68  19.49  15.21
H  32.03   3.37   1.37
H  16.57  21.52  14.18
H  12.56  11.48  17.97
H  20.48  27.70  22.93
H  32.12   2.06   5.60
H  22.95  13.82  28.44
H  26.89   2.85  28.16
H  29.84  12.45  29.92
H  32.49   3.51   4.60
H   9.35  25.63   6.07
H  16.82  28.49  23.85
H  19.00  22.25  15.44
H  12.10  26.94   0.89
H  18.57  13.85   3.05
H  30.43   7.54  32.50
H  25.19  13.88  25.43
H  15.73  22.41  28.38
H  15.52   3.95  15.37
H  11.54  15.78  16.69
H   3.35  21.94  14.07
H  21.39   1.60  15.04
H   8.37  17.53  21.34
H  14.44  12.34  17.45
H   1.88  17.56  15.87
H  21.32  12.76  27.08
H  10.64   0.34   6.51
H  10.47  14.55  30.73
H  21.63  11.99  11.56
H  17.51  29.24  23.64
H  24.96   7.68  11.46
H  16.84   0.83  17.79
H   0.55   5.68  31.41
H  29.88  10.61  13.34
H  10.65  11.46  16.09
H  30.95   7.20  14.23
H   4.47  22.72  12.78
H  13.19  26.20  32.47
H  16.07  28.92   6.41
H  16.16  10.75  17.03
H  15.41  13.69  17.34
H   1.69  17.23  12.05
H  22.59  27.63   6.51
H  18.09  15.56  20.05
H  28.81  25.33  14.35
H  30.37   8.09  14.58
H   4.92  14.25  30.04
H  16.05  12.62  15.93
H  25.96   1.27  30.60
H   6.88  14.66   2.57
H   8.30  16.20  21.51
H  11.34   6.77  17.15
H  27.12  28.01  17.74
H  22.24  26.48   5.21
H  27.36  25.54  24.17
H  30.82  12.74  30.51
H   2.67   2.39  33.46
H  29.20   8.19  15.32
H   0.09  15.58  23.66
H   3.95  28.30  32.87
H  23.66  14.07  27.55
H  28.79   6.32  12.23
H   0.22   1.91   5.03
H  11.54   6.11  11.68
H  28.42   8.44  13.04
H   5.09  21.84   2.46
H   9.73  20.42  25.38
H  19.97  22.41  12.28
H  32.70  33.05   8.15
H  15.31  20.93  27.42
H  16.66  28.62   5.35
H  29.52  18.58  10.03
H  23.83  24.02   9.41
H  11.66  24.23   0.17
H  29.84  33.24  30.33
H  25.90   2.60  28.85
H  18.32  29.55   6.14
H   5.91  24.02  12.92
H   3.11  12.56   2.53
H   7.10  20.41   2.49
H   0.30   3.08   4.34
H   9.79  26.25  23.15
H   6.11  21.93   3.20
H  29.28  11.77  29.45
H  15.11  27.69  27.12
H  12.69   7.86  31.36
H  10.47   5.81  27.92
H  21.74  12.12  27.96
H  25.29   7.40  31.30
H   5.84  20.82   1.46
H  28.43   8.04  14.40
H  17.17   5.43  19.10
H  15.71  12.66  17.15
H   9.07  16.23  19.42
H  10.47  15.86  21.76
H  16.37  11.78  17.80
H  15.77  24.72  26.83
H  26.47  21.39  11.13
H  14.11   9.85  18.93
H  30.94   3.61   6.32
H  19.98   1.95  12.80
H  25.62   7.96  15.71
H  29.93  10.32  14.48
H   8.17  17.17  19.36
H  16.21  17.26  32.94
H  21.52  10.48  30.12
H  23.64   2.65  26.68
H  13.39  12.11  17.21
H   3.67  30.75  28.96
H  27.21   9.09  12.18
H   5.64  24.13  10.97
H  30.18  13.22  28.04
H  17.53  22.34  27.02
H  20.05   5.46  17.40
H   5.86  22.75   2.51
H  32.31  29.59  29.62
H   7.57   1.15  13.86
H  19.63   4.55   7.88
H  29.36   8.71  12.11
H  15.43  29.77  18.03
H  32.03  11.39  28.45
H  26.76   0.20  28.82
H  18.05  26.83   5.69
H  27.13  33.49  30.55
H  23.69  12.65  27.74
H  21.53  26.24   6.07
H   5.39   4.15   1.32
H   4.61  21.12  27.95
H  30.15   9.09  15.44
H  20.03  12.75  32.94
H   2.47  17.79  14.58
H  25.02   2.68  29.60
H  30.64  11.41  26.54
H   3.87  13.58  31.91
H  22.81  11.98  28.00
H   2.06   8.38  16.35
H   7.15  23.32   3.36
H  22.92  29.95   9.62
H   2.36  32.23  22.43
H   0.43  15.06  11.65
H  29.33  18.00  24.23
H   9.73   2.48  30.13
H   6.00  13.10  31.81
H  12.61  14.54  23.02
H   9.39  21.15  29.34
H  16.15  13.75   8.12
H  14.51  24.62  27.23
H  30.16  17.57   1.10
H  26.51  11.67   0.04
H  11.42  23.36  33.15
H  18.54  22.28  13.44
H  33.33  30.86  12.18
H  20.68  26.31  28.48
H  24.71   1.95  28.81
H  31.01  11.68  28.27
H  33.24   2.28   6.02
H  28.41   5.72   2.82
H   0.81  15.52  10.63
H   2.23  32.79  10.03
H   2.12  19.41  13.27
H  26.01   3.35  29.92
H  23.72   1.34  13.81
H   6.53  21.80  10.11
H  20.31  27.82  11.64
H   1.28  18.73  13.13
H  30.14  26.89  20.74
H   6.01  22.86   3.57
H   1.48  14.77   1.27
H  27.37  18.96   0.94
H  16.99  28.50   6.65
H   5.84  21.66  13.81
H  19.72  13.03   0.76
H   6.42   7.37   6.34
H  16.57  29.84  23.70
H  13.22   8.33   8.72
H  24.57  19.44  12.64
H  29.34  20.23  29.55
H   2.08   7.37  26.86
H  15.01  12.33  15.28
H  13.09   4.96  17.80
H  12.90  25.11  32.48
H   2.90  19.66  13.91
H  14.00  11.50  17.97
H  32.04  12.25  29.21
H  19.56  32.34  32.73
H  12.92  25.40  21.96
H  25.43   2.48  30.49
H   3.43  11.82  30.10
H   4.85  13.19  31.47
H  33.07   4.14   6.16
H  28.73   7.54  12.40
H  17.30  21.20  27.30
H   4.10  25.46  10.50
H  20.50  16.66  10.90
H  30.29   7.77  13.45
H  16.96   8.36  16.20
H   9.90   6.51   6.39
H  15.64  23.87  26.08
H  30.37  29.70  25.74
H  14.28  11.04  16.90
H  19.24  19.83  13.02
H   9.71   4.00   6.03
H  18.75  28.27   6.10
H  15.09  22.11  27.51
H  27.47   8.11  12.88
H  17.49  23.58   7.44
H  14.05  22.41  13.65
H  16.29  21.21  25.97
H  24.06  28.97  15.95
H   0.33   3.19   6.31
H  32.19  16.06  12.80
H  24.38  27.94  16.57
H  19.91  27.72  13.03
H  12.29  24.38  32.89
H  18.35  28.64   4.72
H  29.97  31.68   5.50
H   7.56  22.37  22.32
H   6.10  14.12  31.45
H  28.31  13.30   8.88
H  30.88   8.65  13.58
H  15.27  11.56  17.23
H  10.26   4.33  26.37
H   7.22  21.34   2.08
H  28.67  12.14  28.55
H  27.33  22.25   6.43
H  10.19  25.22  25.33
H  22.82  14.74  27.43
H  28.50  11.99  27.31
H   6.58  12.78  30.96
H  23.58  29.71   5.39
H   8.16  20.30   2.11
H  29.18  15.20  33.36
H  31.87  15.96  25.69
H  11.54  16.15  22.76
H  25.39  11.87  21.59
H  13.21  25.88   0.18
H  28.59  12.57  29.82
H  11.82  25.69  30.89
H   4.88  16.11   6.68
H   0.90  18.05  16.44
H  16.65  27.32  27.76
H  33.49  23.65  22.51
H   3.94  24.57   9.96
H  11.26  16.96  21.69
H  23.48  12.68  28.82
H   5.98  20.99   4.14
H   2.56   4.36   9.45
H   0.52   9.77  33.48
H  24.71  18.56  11.93
H  29.89  12.43  28.86
H   1.33  29.50  21.24
H  12.05   3.45   9.58
H  13.04  12.04   2.94
H   0.77   9.19  10.28
H   4.33  11.97  29.33
H   7.67  16.94  17.72
H  22.28  12.22  26.95
H   3.38  20.56   7.36
H  10.91  17.15   6.66
H   2.54  19.69  16.29
H   2.83   2.82  15.42
H   5.95  25.48   9.57
H  12.14  26.25  32.68
H  18.77   8.77  32.21
H   0.73   2.00   5.99
H  14.24  22.03  26.91
H   8.81  16.53  20.55
H  31.99   5.81  26.83
H  14.93  13.57  24.82
H  26.06   0.29   8.98
H  17.02  24.54  27.11
H   4.62  24.82  11.58
H  16.74   6.07   0.28
H  10.06  18.62  20.10
H  30.48  12.28  27.51
H   1.97  16.75  14.93
H  21.75  14.80  26.91
H   3.30  18.87  13.32
H  16.75  29.52   7.10
H  31.40   8.44  18.95
H  31.81   3.14   6.89
H  10.13  20.71   7.81
H   5.19  14.92  30.99
H  22.90  15.65  28.40
H  12.29   1.81  12.06
H  27.77  26.02  32.94
H  29.47  12.38  30.86
H   4.20  21.96  33.28
H   2.84  21.89  11.67
H  29.05   9.98  13.81
H   3.81  17.25  10.27
H  31.74  12.02  30.22
H  27.43  18.45  15.26
H  17.79  18.32  31.26
H  15.65  18.12   5.73
H   5.72  12.54  30.46
H   0.74   0.96   5.79
H  15.62   0.87   5.11
H  25.61   1.56  28.28
H  10.70  25.72  22.82
H   2.23  28.39  17.09
H   8.73  19.95  24.18
H  12.67  21.85  24.26
H   3.61  25.75  11.51
H   2.61  23.33  21.87
H  32.45   2.07   6.62
H  26.72   0.85  27.99
H   2.98  23.73  15.30
H  26.12  17.65  14.76
H   4.75  17.93  13.46
H  25.62   0.35  27.98
H  29.59  13.56  29.11
H  15.23  23.80  18.11
H  25.98  22.28  26.37
H   5.00  22.70   3.31
H   0.05  29.49  28.02
H   0.95   2.67   5.07
H  16.97  18.56  18.49
H   4.25  23.70  10.55
H  31.14   0.25  12.83
H   5.16  22.68   1.60
H  15.41  10.95  16.07
H  28.40  19.02   7.82
H  19.01   1.97   8.68
H  10.82  31.20   3.58
H   3.05  31.33   9.50
H   5.46  12.93  32.69
H  11.22  25.01  33.07
H  23.24  11.78  27.02
H   4.78   2.93  17.18
H  15.27  25.17  27.85
H   6.34  24.57  10.08
H   9.78  16.13  20.89
H  32.78   2.89   7.19
H   5.31   5.68  19.97
H  32.39   4.51   5.47
H   1.49  17.58  14.48
H  32.69  27.08  25.51
H  15.70  22.72  26.83
H   9.33  16.54  21.90
H  16.16  26.83  23.16
H  17.88  23.51  26.83
H   7.98   4.27  21.46
H  27.87  29.19   7.26
H   9.76   2.64  14.11
H   9.91  28.44  26.92
H  14.42  22.55   7.02
H  26.58   2.32  30.96
H  22.55  12.96  27.85
H  27.00   3.61   5.72
H   3.20  18.15  20.42
H  23.76  29.80  11.67
H   2.11  11.84  16.72
H  28.36   9.17  13.98
H   6.65  23.13   1.64
H  22.15  17.20  22.88
H  32.60   3.15   6.04
H  17.03  27.22   6.95
H  27.13   1.85  29.69
H  26.86  28.26   2.53
H  29.41  14.42  29.76
H   0.97  18.28  15.21
H  30.43  21.80   0.26
H   9.99   9.81  16.44
H   5.05  14.12  32.28
H  31.61  24.46  31.29
H  16.10   8.55   6.28
H  11.54  17.30  20.58
H  15.29  23.74  27.17
H  13.05  20.81  22.31
H  20.21   3.57  21.89
H  20.14  17.42  32.42
H  16.35   9.22   4.19
H  21.31   9.75   8.37
H   3.08  16.75  15.03
H  29.51  21.93  33.12
H  22.59  25.61   4.83
H  30.92  10.29  14.15
H  16.61  29.13  22.90
H  32.18  18.51  23.57
H  23.95  13.46  26.29
H  31.52   1.26   6.24
H   3.40   2.93  23.62
H  11.10   3.79  25.91
H  24.09  13.50  28.42
H   2.32   1.11  24.23
H  10.77  18.89   6.21
H  22.83  18.41  31.74
H  20.76  29.98  18.59
H  11.70  26.20   0.15
H  24.81   2.97  28.12
H   0.89   0.02   1.64
H   3.35  18.77  15.69
H   7.97  21.62  11.63
H  31.96  32.67  19.52
H   7.34  21.64   3.12
H  28.95  10.99  27.82
H  10.65  25.89  26.91
H   7.23  21.14   4.21
H  23.66  14.49  28.68
H   6.97  22.63   2.54
H  21.09  12.56  10.69
H   1.08  28.16  18.75
H   0.22   2.10   7.14
H  23.03  14.64  26.21
H   7.75  23.21  22.88
H  17.22  23.57  27.64
H  10.15   1.57   6.24
H  33.20   2.84   5.22
H  32.00   6.48   5.05
H  17.27  19.87  14.60
H  20.14  31.90  25.40
H   6.63  30.19  22.09
H  15.49   7.86   0.08
H  17.26  10.95  18.10
H   4.98  24.88  25.57
H   4.03  23.28  11.61
H  12.33  27.26   1.86
H  25.21   1.77  32.34
H  18.85   9.44  15.38
H  12.84  22.26  14.47
H  20.84  11.29  29.46
H   3.62   0.22  30.32
H  11.88  26.94  25.40
H  10.06  16.47  19.87
H   5.76  22.05   4.28
H   1.11  18.59  14.11
H  26.98   1.11  30.61
H   3.83  14.25  29.58
H   1.50  15.13  24.40
H   7.99  24.04  20.12
H   9.76  25.22   9.00
H   4.54  31.30  11.70
H   2.90  26.41  25.38
H  15.91  12.38  18.64
H   5.17  25.12  10.50
H   1.03   4.88   7.26
H  10.28   6.55   7.47
H   6.28  23.33  11.98
H   4.26  28.64  15.62
H  20.70  16.33  14.40
H   3.15  20.29   6.36
H  24.16   2.99  28.95
H  29.63  12.43  31.85
H   5.74  30.62   4.90
H  10.79  26.07  33.21
H   1.02  29.39  14.22
H  30.54  28.75  26.12
H  28.39  29.73  32.97
H  17.56  21.42  26.29
H   4.72  23.71  12.83
H  14.23  11.66  31.02
H  10.82   7.32  31.27
H  16.84  27.51   5.85
H   6.78   6.39  23.64
H   5.59  24.40  11.97
H   8.58  20.01  25.62
H  20.41   7.95  24.52
H  18.49  27.67   5.16
H  13.64  26.70  27.41
H  10.12   3.16  27.05
H  22.64  13.87  26.86
H  28.15   8.90  15.07
H  29.39   9.45  14.68
H  14.95  11.99  16.28
H  13.91  12.20  16.15
H   7.36  15.50  16.90
H  15.84  27.07   5.83
H  32.87   1.25   5.41
H   6.29  21.15   2.51
H   9.84  17.57  20.13
H  14.70  12.62  18.41
H   9.97  25.11  32.07
H  20.13  11.25   4.35
H   2.18  18.80  14.04
H  20.56   5.70   7.09
H  30.07  26.79  14.38
H  21.51  27.71   5.95
H  29.41   1.61  26.32
H   6.61  20.56   3.38
H  21.00   2.21  10.61
H  10.61  14.45  29.20
H  10.98   7.12   3.68
H  13.94  27.57  13.64
H  17.95  22.27  20.49
H  20.34   8.44   6.79
H   9.90  12.09   1.66
H  17.48  27.53   5.00
H  12.33  25.83   0.90
H   3.66  17.68  14.73
H   6.65  12.73  29.71
H  26.63   0.90  29.64
H   6.23  32.52   5.16
H   5.81  22.91  13.37
H  12.59   0.84  30.18
H  33.23   9.07   4.07
H   3.52  19.78  15.88
H  10.53  24.92   0.45
H  20.53  17.14  13.61
H   9.34  17.22  22.67
H  20.50  19.44  12.19
  864
  Step: 200
H  27.41   7.21  19.61
H   6.60  24.39  11.57
H   5.55  24.52   0.68
H   1.09   0.93  29.85
H   8.32  17.44  18.41
H  31.67   2.12   7.32
H   5.69   7.68  29.68
H  16.82  27.42   8.16
H  23.07  12.87  26.78
H   3.13  18.78  14.53
H  13.94  11.29  19.11
H  24.67  11.41  26.05
H  29.26  26.80  24.21
H   4.54  20.20  14.97
H   9.23  15.37  20.35
H   6.25   4.05  10.45
H  14.11  31.43  18.67
H   4.74  10.99  17.89
H  20.06  11.34   5.08
H  31.59  30.18   3.36
H  10.84  17.20  23.30
H  30.00   9.43  13.71
H  29.49  11.95  26.93
H  27.86  15.28  18.33
H   5.68  25.31  12.42
H  31.78  12.09  27.60
H   5.30  20.51   1.82
H  27.65   1.86  27.98
H  15.05  23.99  28.11
H  27.17  32.49  16.81
H  26.11  32.39  12.84
H   2.06  18.56  15.33
H  16.23   6.16   2.24
H   8.52  17.55  20.26
H  17.47  28.54   4.46
H  29.19  14.26  30.02
H   1.51   3.37   6.00
H  16.79  27.46  27.21
H  23.00  15.27  28.56
H  27.82   2.58  28.68
H  29.22   7.25  14.07
H   4.12  17.15   4.44
H   7.44   6.87  10.51
H  18.57  28.23   7.24
H   3.78  19.10   3.07
H  17.22   6.54  32.66
H  27.77  15.72  13.60
H  24.54  14.42  26.93
H   8.20   7.09   1.59
H   8.37  30.07  20.28
H  30.50  24.39  21.63
H  29.92  19.29  26.36
H  27.60   5.89  27.64
H  22.58  32.37  30.49
H  32.41   3.92   8.50
H  22.30   3.66  22.45
H   1.27  11.44  24.21
H   2.35  16.90  13.91
H   2.85   3.74   7.70
H   1.96  15.60   9.72
H  24.48  11.76  27.13
H   1.73  19.71  14.85
H  31.29   7.94   4.02
H   4.61  22.43  12.70
H   2.45   2.63  13.36
H  20.86  27.00  12.30
H   0.14   3.10   6.18
H  31.57  16.15  21.39
H  29.44   6.83  26.89
H  11.48  27.16  32.68
H   3.83  20.95  21.48
H   2.13  18.61  16.34
H   5.42  26.33  12.13
H  16.46  12.27  15.21
H  12.42   7.85  33.22
H  25.09   3.52  29.04
H  16.91  22.79  28.78
H  29.56  26.09   6.45
H  26.10   3.51  28.42
H  12.91  23.39  18.36
H   8.79  15.39  21.31
H  31.76   5.90  33.01
H  24.77  21.50  31.11
H  14.93   6.92   0.21
H  12.81  18.09  15.48
H   4.89  14.35  29.84
H  28.33  19.93  28.11
H  29.01  23.27   7.44
H  16.28  11.57  16.32
H  29.62  33.16  32.51
H  28.87  12.93  27.10
H  19.62   3.74   5.16
H  29.82  13.88  15.43
H  17.90  28.98   6.91
H  16.94  21.54  28.64
H  11.90  25.37  32.29
H  15.47   6.23  23.31
H  16.12   3.68  24.26
H   4.81  23.21  27.07
H   8.57   2.25  31.23
H  17.14   2.09  23.79
H  26.84   2.89  29.17
H  11.50  26.71  31.15
H  28.01  12.98  27.88
H   6.68  24.80  12.56
H  25.09   6.59   7.25
H   8.21  18.94  20.85
H  10.07  19.09  20.69
H  31.65   8.40  14.40
H  15.08  10.40  17.12
H  16.04  21.52  27.78
H  27.11  28.48   3.15
H   7.80  24.51  18.11
H  30.86  12.52  29.47
H  11.07  26.29  32.06
H   0.57  18.96   2.97
H   4.02  13.70  30.81
H  25.23  17.46  14.62
H  26.98   3.27  19.38
H   3.20  17.68  13.57
H  15.92  21.44  25.53
H  10.97  24.87  31.63
H  25.73   0.72  29.88
H  16.38  23.67  26.95
H  16.20  11.24  15.29
H   5.37  22.59  11.28
H  17.35  30.22   2.23
H   9.38  17.50  21.12
H  16.84  25.17  26.08
H  10.59  20.69   9.08
H  32.09   2.84   8.11
H  32.71   3.80   5.11
H  22.75  18.26   0.97
H  30.52  18.14   6.88
H   1.60  13.51  33.38
H  15.86  29.85  32.76
H   5.62  13.40  29.60
H   7.83  21.06  23.82
H  19.83  16.68   7.73
H   5.13   4.27   7.97
H   0.23   9.02  17.88
H   0.48  18.70   5.49
H  17.59  11.01  23.20
H  23.57  30.83  25.31
H   5.23  14.68  31.24
H  15.81   3.18  14.55
H  24.76  12.43  27.90
H  30.57   3.37   5.72
H   2.05  17.95  13.37
H   7.44  13.24  11.29
H   2.97  17.76  15.61
H  23.15   6.29  26.34
H  25.80   1.79  29.69
H  16.12  24.30  27.81
H  18.79   8.69   4.55
H  17.67  28.56   5.69
H  26.77   1.86  28.75
H  26.89   1.93  16.85
H   3.98  24.78  13.13
H   7.96   9.41  17.83
H   5.41  13.74  30.65
H  29.85  11.54  27.94
H   4.96  17.38   0.98
H  11.29  32.13  12.11
H   6.00  14.98  30.60
H   7.43  19.41   1.87
H  23.59  26.37   6.25
H  16.78  28.96   7.70
H  12.38  25.40  33.34
H   7.88  20.53   3.28
H   7.29  18.83   0.79
H  29.26   7.15  13.03
H  10.34  27.21  32.17
H  10.37  17.03  20.79
H  28.56  27.99  22.29
H  21.23  32.65  13.55
H  14.95  11.45  18.63
H  14.99   3.91   1.33
H  31.58  16.32  20.23
H  27.15   2.51  26.99
H   8.61  30.17  28.25
H  32.58  15.38   0.94
H   5.32  24.01  13.89
H   3.59  19.84  14.70
H  27.10   1.79  18.52
H   6.42  21.94  29.93
H   5.48  26.40  10.82
H  28.97  21.18  17.44
H   4.08  14.92  30.86
H   0.45   4.59   6.24
H   6.52  12.95  10.55
H  24.94   2.03  28.80
H  23.39   4.75  27.62
H  13.64  12.56  18.40
H  17.58  22.28  28.19
H  13.52  11.31  21.45
H   3.26  15.71  14.86
H  17.91  27.77   6.42
H  30.78  10.33  14.01
H  31.93   4.84  11.38
H  16.81  22.05  25.79
H   3.48  16.24  18.67
H  10.15  18.86  19.41
H  15.43   4.46   2.25
H  25.61   1.83  16.67
H  26.10   1.31  17.57
H  24.70   8.79  14.33
H   6.67  20.12   1.52
H   0.07   2.90  21.23
H  16.58   5.25  10.15
H  31.25  13.10  27.26
H  29.17  27.79  24.00
H   0.30   3.94   7.26
H  16.33  27.56   4.94
H   3.04  13.54   9.85
H  26.28   2.47  16.21
H  20.22   8.80  28.67
H   5.15   6.43  16.86
H  30.17   6.74  13.16
H   9.88  18.42  21.53
H  28.34   6.81  13.70
H  17.07  21.16  26.49
H  11.19  27.78  31.62
H   3.39  24.84  26.53
H   2.95  26.36   5.73
H  10.11  17.32  21.76
H  16.15   4.11  14.22
H  32.24   5.08   6.61
H  32.02   4.00   6.28
H  23.85  12.28  26.25
H  29.32  27.48  22.77
H  14.67  10.46  18.27
H  30.22   8.98  12.66
H  28.08   9.42  14.07
H  29.39  12.47  27.85
H   4.50  23.89  11.09
H   9.77  19.70  32.23
H  10.97  27.86  30.47
H  11.64  33.16  29.09
H  26.09  14.18  26.42
H   5.17  29.56  24.26
H  31.21  12.74  28.30
H   2.27  19.13  12.96
H  13.40  29.08  31.46
H  30.52  13.66  29.71
H   4.43  14.96  28.73
H  20.18  28.77  17.64
H  15.26  24.68   4.50
H  29.78  30.45  30.72
H   3.88  28.58   8.87
H  14.71  32.64   4.27
H  10.79  20.55  11.46
H  13.70  30.19  22.51
H  31.26   2.52   6.19
H  26.22  13.72   4.14
H  26.81  26.02   6.66
H  17.29  24.20  26.19
H  31.12   8.52  15.37
H   5.90  21.05  22.78
H  16.40  27.43  16.61
H  19.59  31.62   6.58
H   1.72   2.34   7.90
H  17.57  20.53  31.14
H   8.61  18.68  25.84
H   6.18   4.86  23.13
H  23.77  16.11   2.28
H  11.18  18.17  14.55
H  30.42  16.42  15.57
H   4.08  13.82  32.29
H  16.89   6.85   1.52
H   8.91   5.88  13.07
H   5.09  23.43  11.91
H  16.32   7.66   0.99
H  27.88   2.79  18.70
H  16.37  22.96  27.72
H   7.85  29.99  27.35
H  22.97   2.28  10.71
H  13.25  10.00  24.86
H  25.68   6.66  28.74
H   4.71  31.70   0.40
H  12.01   9.87  25.86
H  29.57   8.48  13.75
H  30.80  21.22  32.09
H   0.55   3.75   5.49
H   6.45   6.23  17.96
H   5.06  24.71  13.21
H   2.28  12.57   2.32
H  15.19   8.12   1.03
H   2.90  17.71  11.68
H  24.45  14.93  27.98
H  26.60   1.81  27.58
H  17.51   9.33   1.93
H  17.29   6.33  11.96
H  28.99   7.11  15.60
H   3.20  13.73  29.15
H   3.71  12.99  29.84
H  14.31   3.94   0.04
H  16.46  21.98  26.85
H  13.84   5.21   1.00
H  15.62  10.89  18.06
H   4.74  26.42   4.96
H  26.58  16.10   9.44
H   2.45  20.51  14.87
H   8.69  17.04  10.50
H  26.97  33.19  21.76
H  15.74  24.96  25.68
H  32.11   4.22  19.41
H  13.54   8.55  17.05
H   2.91  15.91  23.85
H   4.31  13.66  29.21
H  17.55  32.83  11.81
H   5.09  21.03   3.25
H   6.86   7.90  28.03
H  28.10  17.38  15.75
H  22.78  13.96  29.50
H  16.32  27.91   7.33
H  17.45  21.35  27.68
H   3.08  14.24  31.03
H  16.67  27.99  28.44
H  12.74  25.82   0.90
H   4.72  13.08  30.22
H   5.44   6.43  32.06
H   6.29  22.12   1.72
H  28.69  28.60  23.39
H  27.22  32.01  27.87
H  13.28  31.53   7.96
H  15.97   8.31   2.59
H  16.00  23.64  28.74
H  15.59  12.14  13.93
H  30.79   9.14  14.48
H  19.57   1.56  29.43
H   8.70  31.12  29.08
H  21.51  26.36   6.65
H  12.65  26.70  33.42
H  21.31   7.84  10.12
H  29.28  17.90  32.27
H  10.51  20.46  26.24
H  17.62  28.09   7.53
H  22.15  19.09   8.09
H   8.11  31.33   7.93
H   6.45  13.78  30.35
H  30.22  13.81   0.36
H  32.58   5.36  23.98
H  24.94  14.02  28.06
H  13.40   4.45  33.03
H   7.74  16.66  20.66
H   4.53  25.83  11.47
H  14.68  24.50  33.18
H   8.12  16.98  19.35
H  30.99   5.02  31.38
H  12.30  29.77   0.80
H  31.03   9.67  13.24
H   7.77  14.34  30.44
H  13.75  25.70   4.95
H  18.34  29.89   2.92
H  15.36   5.67   2.20
H   4.35  12.17  30.79
H  15.31  28.00  18.98
H  19.34  20.93  16.02
H  27.70   2.71  29.87
H  22.32  31.69  11.28
H   6.46  24.47  10.47
H  24.83   1.81  27.70
H   2.68  19.49  15.21
H  17.93  26.56  26.89
H  24.09  18.01  19.64
H  25.07  13.51  26.36
H  27.41   0.16  15.82
H   4.32   2.16  31.97
H  22.95  13.82  28.44
H  26.89   2.85  28.16
H  29.84  12.45  29.92
H   0.60  14.31  17.23
H   8.88  16.21  27.81
H  23.83  21.05  30.75
H   5.19  13.98  32.11
H  19.91  26.46  21.70
H  14.41   4.07  22.09
H  17.80  26.08  29.76
H   8.76  20.91   1.58
H   7.92  22.17  21.45
H  20.80  23.61   7.53
H  24.59  26.55  20.64
H  11.12  10.42  13.17
H   3.41  20.24  15.64
H   8.37  17.53  21.34
H  14.44  12.34  17.45
H  22.51  13.95  27.39
H  15.15  22.18  27.69
H  24.14  25.88  10.36
H  15.06  12.16   3.54
H  18.19  26.34   6.35
H  12.41  25.43  14.17
H   5.06  29.18   1.17
H  28.94  13.39  28.20
H  13.87  32.59   7.81
H  29.88  10.61  13.34
H  15.93   9.29  15.55
H  23.97   6.17  27.03
H  27.05  22.42  21.91
H  13.19  26.20  32.47
H   6.39  26.90   7.97
H  16.16  10.75  17.03
H   6.42  21.54   4.19
H  12.86  18.82  19.18
H  21.72   3.06  26.01
H  10.28  22.90  22.94
H  18.08  27.19   7.36
H  30.37   8.09  14.58
H   8.91  19.84   2.93
H  18.18  29.07   8.02
H  21.45   2.83  22.60
H  25.51   8.47  30.06
H   8.30  16.20  21.51
H  18.40  27.81   8.33
H   4.55  25.36  12.48
H  17.01  14.98  23.59
H   0.30  13.85   0.97
H  12.18  29.71  31.57
H  32.58   9.27  22.89
H   4.10  18.97  14.39
H   5.09   2.02  32.65
H  12.61   2.23   3.43
H  23.66  14.07  27.55
H  33.05  19.40   8.78
H   0.22   1.91   5.03
H  13.00  25.05  32.63
H   5.56  19.99   2.75
H  12.45  27.93  33.13
H  16.51  11.56  19.17
H  24.73   2.66  27.02
H   5.58  21.95   4.53
H  16.28   5.57   1.21
H  16.66  28.62   5.35
H  17.71  27.07  27.89
H  16.54   5.24   2.83
H  21.20   7.96  16.97
H  18.97   3.57  31.74
H  25.90   2.60  28.85
H   4.33  27.87   3.48
H   5.91  24.02  12.92
H  17.21  30.77   0.73
H   7.10  20.41   2.49
H  11.55  24.07  32.49
H  11.85  27.46   0.60
H   6.11  21.93   3.20
H  29.76  11.21  28.94
H   6.57  19.37   2.78
H   1.02  15.11  10.07
H  15.58  10.34  15.19
H  26.15   2.85  18.89
H   7.18  20.83   4.36
H  21.30   0.08  26.03
H  16.13  12.03   3.85
H  16.97  11.44  11.49
H  15.70   3.59  12.86
H   9.07  16.23  19.42
H  10.05  26.30  31.15
H   4.71  26.90   6.24
H  15.77  24.72  26.83
H  29.62  25.66  15.63
H   4.15  22.81  11.65
H   7.78  19.64   2.82
H  10.85  18.28  20.91
H   0.44  21.28   3.52
H  19.80  23.20   8.19
H  25.31   2.11  30.73
H  28.48   7.71  20.58
H  15.26   4.77  33.27
H  28.17   9.88   8.03
H   0.75   4.95   7.39
H   5.17  16.84  18.55
H  21.70  12.29  28.02
H   5.64  24.13  10.97
H  30.18  13.22  28.04
H  17.53  22.34  27.02
H   6.82  24.40  30.31
H  17.26  11.99  25.83
H  15.41  11.23  19.58
H   7.78  15.41  20.91
H  16.15   4.33   1.44
H  17.37  28.12   8.78
H  16.64  10.85  18.27
H  15.70   9.92  16.42
H  30.27  12.91  20.20
H  28.58   1.37   6.86
H   3.29  16.73  14.31
H  23.69  12.65  27.74
H  12.07  26.88  17.91
H  15.03  29.96  15.09
H  33.13  27.43  23.35
H  30.15   9.09  15.44
H   5.58  25.38  11.45
H   2.47  17.79  14.58
H  25.02   2.68  29.60
H  17.63  13.86  24.29
H   6.65  18.71   1.66
H  22.81  11.98  28.00
H  16.51   8.50  23.19
H  25.24  12.65   7.16
H  18.66   3.96   5.44
H  24.92  12.58  26.74
H  28.33  11.93  27.56
H  33.20   4.91   6.94
H  27.38  22.93  16.88
H   8.29  18.43  19.43
H  30.46  13.19  14.78
H  28.34  27.18  23.42
H   8.30  11.21   9.11
H   6.59  13.04  31.12
H  17.28   0.06  30.89
H  29.70  16.30  28.53
H   4.63  27.67  11.59
H  30.65  30.42  29.24
H  14.22   4.69   9.70
H  31.62  32.38  20.42
H  25.60   2.36  17.85
H  31.01  11.68  28.27
H  26.24   0.46   3.55
H   9.83  10.74  29.33
H   2.85  30.65  17.00
H  24.35  13.38  27.27
H   4.92  29.79  21.17
H  26.01   3.35  29.92
H   2.49  26.87  21.15
H   8.33  25.96   0.63
H  19.99  11.53  10.67
H   8.87  13.62   0.78
H  18.48  29.57   3.97
H  31.69  20.67   0.40
H  16.56  23.78  25.05
H  25.13   2.87  28.05
H  16.99  28.50   6.65
H  24.11  11.72  28.53
H  13.42  19.73   3.47
H  31.38   3.74  30.40
H  20.12   2.83  29.13
H  30.10  13.68  11.82
H  17.13  23.00  25.97
H  30.39   6.00  20.47
H  16.41  10.44  15.93
H  13.17   9.20  10.96
H  24.93  22.36  14.54
H   6.05   5.50  18.70
H   2.90  19.66  13.91
H  14.00  11.50  17.97
H  26.93   1.53  15.79
H  23.43  12.90  29.06
H  24.59  20.61  18.75
H   5.42  23.00  13.22
H   8.61  30.23  21.77
H   4.85  13.19  31.47
H  33.07   4.14   6.16
H   3.51  27.86  20.23
H  24.62  14.21  24.54
H   0.96  27.59  21.96
H  22.12  26.99  15.43
H  30.29   7.77  13.45
H  12.12  24.38  33.30
H  13.83  18.49  15.17
H  15.64  23.87  26.08
H  20.37  32.46   6.39
H  14.28  11.04  16.90
H   9.98  15.98  22.52
H  10.83  27.37   0.04
H   2.86   9.90  30.98
H   9.25  28.75  30.69
H  10.10  24.57  32.28
H  10.49  12.65   2.78
H  23.42  25.39   9.39
H  17.93  25.21   7.10
H  29.55   8.22  15.50
H   1.99  10.89   7.31
H  12.99  32.36   8.78
H  12.54  27.15  32.27
H  14.92  20.57  29.32
H  31.56  19.02   8.24
H  28.83  26.86  21.97
H   4.44  19.90  24.13
H   6.79  30.30  27.29
H   6.10  14.12  31.45
H  25.00   9.90  22.15
H  30.88   8.65  13.58
H  15.27  11.56  17.23
H  23.70  29.75  22.55
H   7.22  21.34   2.08
H  28.67  12.14  28.55
H  15.06   8.71  17.13
H  22.53  29.98  33.01
H   7.23  25.33  11.56
H  27.16  24.62  19.58
H   0.10   0.96  12.68
H  30.16  12.25   2.92
H   8.16  20.30   2.11
H   8.56  21.13   2.65
H  28.60   8.63  14.72
H   3.65  14.40  29.93
H   9.79  14.02   3.08
H  20.27   4.62  11.72
H   6.34  21.08   1.44
H  22.16   0.52   5.30
H   4.77  12.27  32.11
H  23.68   0.40   1.77
H  10.36  11.67  24.73
H   6.15  25.08  13.50
H  25.66   0.40  25.43
H  15.12   6.58   2.72
H   0.10   2.69   7.75
H   5.03  25.82   6.18
H  25.18  26.25  14.09
H  11.28   5.79   7.63
H  13.52   6.13  33.40
H  29.89  12.43  28.86
H   9.01  11.62   2.17
H  32.94   1.68   7.69
H  29.88  19.78  28.19
H   6.76   5.67  16.64
H  27.97   7.04  27.32
H   2.39   3.38   6.83
H  22.28  12.22  26.95
H   4.29  17.37  13.40
H  26.30  12.69   4.29
H   2.54  19.69  16.29
H  22.71  33.19  31.71
H  29.16   8.15  12.63
H  12.14  26.25  32.68
H  12.94  18.81  22.75
H  16.57   3.07  13.73
H   1.93   8.46  19.88
H   8.81  16.53  20.55
H  22.08   5.59  24.98
H  14.72   6.79   1.42
H  28.32   7.56  14.54
H  17.02  24.54  27.11
H   4.62  24.82  11.58
H   8.40   3.57  20.10
H  16.81  23.74  30.03
H  30.48  12.28  27.51
H  16.70   0.18  14.18
H  22.15  29.77  30.78
H   3.30  18.87  13.32
H  32.69   7.23  14.13
H   5.93  14.53  17.31
H  31.81   3.14   6.89
H   5.83  12.92  31.76
H  12.24  11.27   4.01
H   6.45  27.38  11.18
H  26.97  18.98  13.02
H  16.03  22.82  25.46
H  25.98   1.65   3.37
H  17.29  25.74   6.14
H  12.55  25.47  21.12
H  29.05   9.98  13.81
H   8.04  15.98  19.77
H   8.27  19.56   1.13
H   7.10  25.34  17.87
H  15.37  32.00  21.56
H   1.10  22.68  11.64
H   5.72  12.54  30.46
H  29.47  33.30  13.45
H   3.60   8.34  32.40
H  10.73  22.88   9.15
H  30.39  11.31  26.90
H  15.82   6.54   0.90
H  28.02   3.27  17.43
H  32.39   4.02   7.37
H   0.89  26.65  21.16
H  11.20   4.88   0.44
H  32.45   2.07   6.62
H  11.69  25.36   0.92
H  14.16   5.90   1.82
H  16.52  11.65  17.55
H  15.89  28.35   6.42
H   8.19  16.26  18.55
H  29.59  13.56  29.11
H   4.93  12.28  29.46
H  18.59  26.51  13.17
H  31.76   1.78  19.70
H   4.27  18.45  13.37
H   0.95   2.67   5.07
H   6.33  26.26  11.49
H  11.55  14.96  21.49
H   0.40  13.64   2.27
H   6.53   9.86  18.59
H  15.41  10.95  16.07
H  26.00  33.09  26.91
H  13.72   5.54  32.37
H  15.45  12.05  15.33
H   5.60  11.94  31.26
H   1.80  20.38  15.86
H  11.22  25.01  33.07
H  23.24  11.78  27.02
H  31.77   9.52  14.02
H   2.87  25.76  26.49
H  25.81   2.84  25.80
H   9.78  16.13  20.89
H  32.78   2.89   7.19
H   1.47   0.76  28.45
H  29.21  10.90  27.11
H  18.48  28.02   4.61
H   6.32  32.59  27.25
H  15.70  22.72  26.83
H   9.33  16.54  21.90
H  10.38  27.32  18.42
H  17.88  23.51  26.83
H  30.06   0.40  21.54
H   8.61  27.16  19.42
H   0.24   9.99  20.94
H  15.35  14.26   0.47
H  23.80  24.01  11.83
H   3.27  12.72  30.74
H  22.55  12.96  27.85
H  19.00  22.29   5.96
H  29.60  28.56  22.38
H  26.70   0.78  27.59
H  18.98  29.48  11.25
H  31.96   2.99   5.01
H  29.91  13.42  12.86
H   1.92  14.78   8.93
H  32.60   3.15   6.04
H  17.03  27.22   6.95
H  27.13   1.85  29.69
H   9.19  18.42  20.70
H  28.33   8.15  13.61
H   7.86   4.57  20.03
H  19.36   8.16  18.14
H  14.72  19.64  18.20
H  23.93  17.58  17.57
H   5.09   3.94  26.32
H  13.73  10.33  27.56
H   1.99  22.28  14.31
H  15.29  23.74  27.17
H  19.06  22.77   7.55
H  28.57  12.65  29.74
H   0.33  29.85  22.25
H   2.53   9.31  10.21
H   9.43   7.41  18.70
H  16.75   6.44   0.41
H  25.83   2.25  26.90
H  14.61   5.91   0.62
H  15.80  10.34  19.06
H  10.78  18.33  22.79
H   8.51   5.31  22.14
H  23.95  13.46  26.29
H  24.15   6.29  28.14
H  29.41  20.82  33.18
H  23.16   4.75  26.58
H  24.09  13.50  28.42
H  15.40   8.34   0.10
H   8.35   4.70  21.15
H  11.61  11.45  28.59
H  21.05   0.54   3.37
H  11.70  26.20   0.15
H  14.95   5.16   1.22
H  29.03  26.41  22.86
H   3.35  18.77  15.69
H   9.08  17.95  22.24
H   1.97  27.31  29.68
H   7.34  21.64   3.12
H  29.82  19.89  11.24
H  30.45  27.52  25.95
H  25.24   1.37  26.73
H  21.37  22.59  18.93
H  32.37  21.38   0.83
H  17.55  26.52   7.97
H   3.78  12.85  31.68
H   1.74  17.54  15.29
H  31.07  18.07  14.17
H  12.35  26.76   1.60
H  17.22  23.57  27.64
H   7.08  19.67  33.29
H  33.20   2.84   5.22
H   4.12  19.46  15.96
H  15.93   5.72   0.05
H  26.72  27.42  12.11
H   4.76  21.73  29.68
H  19.75  26.50  19.30
H  26.72   1.42  26.63
H   8.90  29.99  29.43
H  22.09  13.38  28.98
H   6.50  22.49  15.05
H  13.88  11.95  16.17
H  28.78  13.64  16.16
H   9.12  17.27  19.52
H  15.76   9.08  17.76
H  29.67   0.34   5.33
H  31.57  28.77   7.36
H  10.06  16.47  19.87
H  31.32  27.09   5.29
H  26.30   3.27  26.96
H  19.16  23.27   6.49
H  22.95   5.79  27.46
H  31.73   5.23  18.93
H   7.05   5.33  10.81
H  10.80  28.19  23.18
H  17.30  32.94  12.81
H   2.49  21.14   2.57
H  15.91  12.38  18.64
H   5.17  25.12  10.50
H  28.42   7.27  26.27
H  15.74   6.55  11.47
H   6.28  23.33  11.98
H   1.63  22.70   9.30
H   6.24  25.59  10.58
H  18.82  25.74   6.83
H   6.47  30.21  26.22
H   0.11  19.79   5.63
H  28.10   7.64  12.75
H  10.79  26.07  33.21
H  19.51   1.51   1.60
H   3.94   7.33  25.51
H   4.94  11.27  31.84
H  20.09  12.91   5.60
H   4.72  23.71  12.83
H  14.17   5.09  33.43
H  20.06   6.31  12.49
H  16.84  27.51   5.85
H  13.16  28.78  28.31
H   5.59  24.40  11.97
H  13.78   6.57   0.85
H  30.27  13.10  26.82
H  17.34  29.39   5.01
H  14.03  18.13  32.72
H  28.12  18.79  14.24
H   7.19  21.90   1.17
H   7.59  20.63   1.00
H  29.39   9.45  14.68
H  14.95  11.99  16.28
H  25.78   9.66   7.03
H  22.79   7.05  10.71
H  15.11  24.87  30.59
H  11.57  22.37  12.54
H   6.29  21.15   2.51
H   9.84  17.57  20.13
H  14.70  12.62  18.41
H   0.79   2.21   6.31
H  24.34   1.16  28.49
H   2.18  18.80  14.04
H   8.02  21.99   2.21
H   9.86  25.30  30.82
H  10.17  25.68  32.03
H  31.07   5.17  33.12
H   6.61  20.56   3.38
H   0.80  10.34  20.10
H  18.38  29.52   5.79
H  28.78  11.01  28.21
H  25.80   1.22  28.30
H  15.66   7.12   1.85
H  28.69  26.22  13.70
H  28.15  27.61  24.35
H  17.48  27.53   5.00
H  32.81   5.00   8.00
H   3.66  17.68  14.73
H  14.89  15.38  22.23
H   3.17  21.13  32.21
H  22.27  23.88   2.36
H  27.99   1.43  26.73
H  30.52  16.58   6.80
H  23.02  16.27   3.04
H  13.42  13.12   9.42
H  23.50  16.48  27.96
H  19.67  19.44   8.65
H  17.13  24.06  15.79
H  26.49   2.92  17.19
