  864
  Step: 10
H   6.04   0.65  15.52
H  32.59   4.92  25.42
H  25.25  20.55  23.58
H  33.02  10.84  16.23
H  29.95  28.71   5.53
H  24.44  31.68  19.99
H   9.64  20.15   6.04
H  22.66  24.71  17.39
H   1.82  17.83  16.32
H   1.09  29.36  21.92
H  22.43  23.26  30.11
H  24.84  25.20   5.10
H  27.41   2.57   3.18
H  31.36  21.96  23.50
H  21.69  13.44  26.40
H  26.53  10.39  15.23
H   4.70   2.71  18.61
H  32.51   5.32  15.17
H  13.37  29.53  31.92
H  26.82  31.69  18.27
H   0.74   6.64   9.25
H  21.48  16.96  16.16
H   3.58   2.46  21.58
H  25.40  20.63  28.02
H  27.04  10.52  14.34
H  18.43   3.62  16.38
H  18.46  15.39  33.05
H  23.22  10.73  32.77
H  16.13  27.70   4.98
H   5.54  22.60   1.17
H  15.92  21.34   3.49
H  18.74  27.37  13.71
H  10.68  19.04  22.07
H  28.90   5.52   6.87
H  28.30  10.12  14.68
H  11.05  18.00  21.63
H   3.83  14.34  14.21
H   0.46   5.67   6.50
H   9.08   9.76   2.44
H   9.02  19.14  19.32
H  16.17   6.04  21.48
H  22.91  13.76  28.26
H  27.63   8.41  14.68
H  19.05   3.96  30.16
H  29.10  10.74  15.17
H  12.76  26.48  33.38
H  30.34   1.48  30.14
H  33.32  27.55  20.70
H   2.10  27.20  31.49
H  16.79  22.84  26.28
H   6.68  23.71  16.17
H  20.93  30.66  18.52
H   6.72   5.70   4.36
H  28.80  29.26   6.31
H   0.84  28.08  21.81
H  25.33   1.93  31.37
H  16.74  26.10  28.02
H  19.42  20.02  13.60
H  25.29  22.05  28.73
H  27.57   5.54  11.12
H   4.77  15.61  27.26
H  28.74  10.79  12.62
H  28.28  28.72  23.99
H   2.98  17.94  22.14
H   3.79   9.39   4.29
H  16.82  21.68   4.41
H  30.09  15.98  14.55
H   0.12  17.00  30.68
H  12.57  31.54  12.24
H  11.67   4.85  18.37
H   2.08  26.60  28.19
H   7.69  25.88  30.25
H  32.29   2.16  12.55
H  24.49  26.16   7.98
H  20.32   7.71  29.93
H   3.13  20.53  27.55
H  20.76  13.76  26.78
H  13.67  19.55  22.37
H  17.78   4.77   0.10
H  30.93  23.31  26.00
H  13.04  24.77   0.94
H   4.23  11.89  30.68
H  31.26   9.63  14.31
H  31.63  30.66  32.17
H   1.39  19.45  17.10
H  30.72   4.06   2.20
H  17.28  18.57  14.15
H  16.68  26.08  23.92
H  25.27  27.76  26.86
H  11.58  24.94   1.00
H  26.25  25.82  11.95
H  22.64   0.42  26.95
H   0.84  19.62  13.09
H  17.90  28.98   6.91
H  27.81   3.01  20.70
H   5.68  24.42  25.14
H  15.03  24.60  20.83
H  24.88   4.48  23.04
H   7.73  12.15  30.68
H   2.67   7.08  28.91
H  10.03  22.52  17.05
H  26.84   2.89  29.17
H   1.97  23.51   0.35
H  20.69  13.88  24.34
H  14.19   2.00   7.24
H  10.95   2.98  26.92
H  16.93  31.52  22.76
H  27.80  24.37  13.28
H  32.60  19.72  10.20
H  12.96  28.67  11.88
H  16.04  21.52  27.78
H  26.25   4.00   7.02
H  16.81  30.89   6.54
H  10.32  28.85  19.02
H  14.95  22.03  29.70
H  20.31  20.15  11.84
H   4.02  13.70  30.81
H   6.16  23.65   9.86
H  30.24  20.27  17.87
H  17.77  10.12  24.61
H  17.81  31.37   1.59
H  29.92  24.91  29.09
H   8.25  12.14  12.23
H  16.38  23.67  26.95
H   1.15   2.61   7.15
H   7.05  20.40  16.27
H  26.82  11.39  13.78
H   0.03  13.32  12.29
H  15.06  10.61   0.26
H  16.28  16.94  10.59
H  16.51  20.72  11.95
H  21.98  14.63  26.64
H  32.36   4.19   4.85
H   1.62  11.39  23.43
H  13.62  26.81   0.60
H   5.35  22.41  13.24
H  11.96  17.46  20.75
H   0.84   1.51  20.94
H  29.23  10.23  29.67
H  20.54  20.39   5.35
H  29.18  31.58  22.60
H  23.17  13.10  24.25
H   2.55  19.78  28.60
H  29.89  17.43  12.94
H  22.15  28.18  13.04
H  26.49   8.00  14.59
H  21.53   7.87   6.69
H  19.40   0.36  29.90
H   5.52  19.29   1.40
H   2.36  12.94  32.34
H   0.50   3.69  26.33
H  31.85  32.65  25.69
H  25.80   1.79  29.69
H  27.57   9.21  16.18
H  29.45  25.75  11.49
H  17.67  28.56   5.69
H  26.77   1.86  28.75
H   5.26  20.31   0.57
H  27.06   7.51  15.31
H  11.67   4.97  19.80
H   5.41  13.74  30.65
H  10.02   3.25   2.45
H   3.35  18.94  23.21
H   7.36  25.04  33.25
H  26.67   8.74  15.50
H   6.50  12.18  29.85
H   1.67  17.51   4.75
H   0.64  22.42  28.06
H  12.38  25.40  33.34
H  13.27   5.41  10.70
H  13.75  25.34  33.27
H  28.70   9.39  15.80
H   5.75   8.38  27.35
H   8.15   5.28  28.59
H  18.85   4.47   0.14
H  26.88  18.77  22.58
H  25.39   0.86   5.44
H   8.17   9.25  20.92
H   1.40  19.19  19.58
H  26.75  20.24  21.41
H  14.25   2.82  30.27
H  19.98  22.60  28.86
H  23.75  16.38  11.80
H  16.13  29.90   5.56
H   5.24  21.06  18.28
H  14.81  20.46   2.77
H  30.26  30.01  21.04
H  10.21   7.76   9.07
H  15.38  11.12  11.62
H   8.96   9.22  26.20
H   2.30  23.14  15.21
H  31.63  20.22  22.29
H  26.38   0.93  29.57
H   2.13  20.61  27.99
H   1.72  24.47  12.89
H  25.59   5.79  22.93
H   7.88   0.16   4.13
H  17.91  27.77   6.42
H   6.32  12.80  30.71
H  15.32  21.58  26.46
H  11.25  26.08   1.44
H  28.03   5.47   6.24
H  32.60  24.83  33.37
H   5.15  25.29  18.71
H  12.22  29.20  32.45
H   1.56  14.21  17.36
H  19.01  17.50   5.83
H  30.94  25.93   0.49
H  29.40   4.05  21.45
H  23.57  26.05  25.36
H  23.68  28.18  33.32
H  20.14  12.38  18.23
H  25.59  13.20  27.94
H  12.44   2.20  32.53
H  26.68  31.89  21.33
H  23.32  14.31  29.12
H   4.95  14.05   6.82
H   5.00  29.77   2.53
H   7.11  12.30  32.70
H   9.88  18.42  21.53
H  21.78  13.86  27.41
H  19.79   4.82   0.58
H  15.85  19.70   6.79
H   9.64  20.42  14.35
H   6.06  25.06  11.87
H  10.11  17.32  21.76
H   6.63  20.84   0.62
H  20.66  12.92  26.10
H   3.16  19.21  22.08
H  23.30  31.20  24.37
H  24.10  25.76  26.58
H  12.98  19.26  11.81
H  25.75  19.33  21.38
H   3.07  33.24  24.96
H  27.52   9.87  33.25
H  29.97  29.75  31.65
H  30.99  12.79  14.23
H  12.66  33.31   7.23
H  22.82  21.26  30.56
H  10.18   9.32  27.09
H  22.84  23.39  28.98
H  11.58  13.04   2.94
H  18.00   4.28  30.79
H  10.62  17.99  22.77
H  24.43  22.40  15.52
H  12.63  30.12  32.57
H  25.15  32.86  12.96
H  22.00  23.86  29.25
H  30.79   2.65   7.66
H   2.27  21.79   1.39
H  23.62  25.20   1.45
H  14.91  19.60  21.88
H   0.46  24.34  33.16
H  17.76   4.55  29.36
H  11.44   6.57   9.59
H   3.39  13.45  31.78
H  27.42  12.65  13.81
H  27.68  10.81  16.85
H  12.96   8.85  28.94
H  29.98   4.25   7.74
H  19.93  30.35  12.74
H  26.85   1.91  31.93
H  29.21   5.21   0.14
H  17.41  20.36   6.10
H  28.94  28.28   5.90
H  17.77  30.46   2.19
H  18.96   5.42  33.11
H   2.73  28.71   8.58
H  17.70  16.53  12.80
H   8.08  24.59  18.14
H  18.90  30.19   1.36
H   8.55  11.38  30.47
H  17.66   5.57  26.59
H  12.97  30.95  27.42
H  16.37  22.96  27.72
H   5.45   2.51   2.70
H  27.28   3.14  30.63
H   3.76  14.24  32.63
H  11.85   0.63  16.05
H   1.73  25.90  10.84
H  25.08  17.71   4.67
H  10.60  17.75  20.81
H  12.77  26.89   1.28
H  10.56  27.19  13.30
H  16.44  13.53  29.34
H   7.62  22.22   1.40
H  29.87  19.62  11.68
H  25.08  18.44  21.09
H  16.99  29.48   6.09
H  12.44  28.79  12.89
H  26.12   3.65  30.26
H   1.81  28.90  16.48
H   9.21  23.09   3.47
H  14.21  15.03   2.05
H  17.99  18.00  10.38
H  27.26  19.88  22.28
H  12.89  24.57  32.38
H  16.46  21.98  26.85
H  18.49   1.13  10.72
H  21.21  20.95   8.20
H  33.50  15.42  30.52
H  27.46  19.29  21.35
H   2.45  20.51  14.87
H  21.62  20.99  21.81
H  13.34   1.65  20.63
H   9.16  12.38  11.24
H  18.08  17.50  12.51
H   3.28  12.50  31.10
H   8.17  27.98  28.21
H   7.61  20.76   1.23
H  32.30  12.98  12.02
H  23.14  23.82  18.71
H  30.82  23.99  10.19
H  24.19  23.06  23.85
H   9.24  20.64  30.75
H   2.43   6.70  29.90
H  30.91  32.27  18.70
H  13.36   3.09   6.80
H  13.40   6.89  15.15
H  29.38   2.54  32.19
H   4.72  13.08  30.22
H  14.12  32.99  22.61
H   6.29  22.12   1.72
H  27.88   9.73  29.79
H  15.68   0.07   8.64
H  22.81   6.40  24.25
H  13.12  24.28   0.04
H  25.77   2.92   1.87
H   1.79  16.61   2.81
H   9.11   6.16  16.82
H  18.73  16.49  12.21
H   6.26  19.28   0.59
H  15.50  20.60  11.21
H   4.22  16.40  21.30
H   1.94   6.43   5.66
H  11.86  32.21  25.96
H  12.51  26.54  30.90
H  17.17  21.50  27.82
H  24.91  21.31  29.80
H  22.24  24.11  28.15
H  11.52  33.05  25.04
H  12.60  10.44  10.30
H  18.03  25.49  26.63
H  24.72  30.80  10.30
H   2.11  20.78  13.84
H   1.46  21.03  14.89
H   1.82  28.56  21.76
H  16.75  22.57  29.84
H  31.72  26.29  20.74
H  27.59   2.44  15.12
H   2.18  18.90   9.76
H   6.22  24.60  22.82
H   3.69  19.37  30.60
H  16.56  11.32  24.67
H  25.42  29.32  13.27
H   2.70  30.68  20.68
H  26.47  18.41  21.29
H  12.72  32.85  25.27
H  17.68  26.31   6.62
H  29.28  26.07   3.21
H  27.01  10.14  16.21
H  26.79  10.20  10.53
H  26.98   5.12  12.55
H  11.86  22.75  29.55
H  13.87   5.23  19.52
H  30.75  10.29  15.46
H  26.89   5.39  29.21
H  12.36  22.39  24.44
H  32.12   2.06   5.60
H  23.54   5.39   0.38
H  23.39  12.55  11.54
H  26.50   9.88   1.44
H   1.38   7.49  29.57
H  27.88   5.85   7.80
H  31.57  28.91   6.18
H   8.00  14.35  29.71
H  31.13  26.49  14.92
H   4.20   9.56  12.90
H  10.31  15.29  29.88
H  24.16  12.92   4.22
H   0.65  10.55  11.18
H  28.78  10.08  33.42
H  14.46   9.53  17.81
H  32.70  10.27   5.57
H  33.14  12.32  12.43
H  13.71  24.29  31.25
H   8.98  28.12  25.46
H  32.89  20.37  17.66
H  21.32  12.76  27.08
H  10.19   3.71   8.57
H  19.49   0.55  11.26
H   2.29  25.12  27.47
H   9.46  22.25   7.05
H  30.51  31.17  16.62
H  21.34  12.54  18.19
H   9.85   5.53  11.16
H   9.91  32.47  20.39
H  28.16   6.47  19.89
H  28.50  19.97  21.90
H  21.61   0.24  20.28
H   6.25  23.44   1.44
H  12.80   0.86   7.04
H  26.84  27.52  22.28
H   9.41  27.54  29.90
H  32.84  25.94   0.11
H   4.16  18.31  22.79
H  17.38  14.26  29.04
H  13.64  30.08  14.09
H  15.38  10.47  17.15
H   8.49  14.85  17.07
H  16.57  30.65   2.90
H  25.96   1.27  30.60
H  14.12  13.07  23.16
H  12.61  13.19  29.53
H  13.54   9.23  18.75
H  17.77   7.88  19.35
H   1.16   9.10  17.66
H  12.84  31.29  20.08
H   1.28  11.64  16.12
H  29.22   4.26   6.87
H  12.94  31.10  26.14
H   2.11  16.77  14.50
H  16.12  23.51  24.78
H   2.86  24.17   7.95
H  15.45   5.55  20.74
H  17.17  27.38   6.95
H  27.89  10.18  13.44
H  30.41   9.15  14.86
H  18.63  22.69   2.33
H  31.92   3.19   5.22
H   1.65  22.02  14.42
H  24.23  23.80  18.24
H   8.05  28.61  30.73
H  16.66  28.62   5.35
H   0.66   8.07   3.76
H  27.13   7.22  13.22
H  10.99   9.61   0.30
H  25.99  30.61  29.75
H   1.37   6.60  30.27
H  32.50  13.53  18.56
H   8.16   8.65   6.18
H  12.76  26.54  29.84
H  21.91  31.77   1.53
H  14.39  16.22  26.45
H   8.89  17.23  16.68
H  12.40  19.68  10.69
H  14.17  24.44  32.69
H  26.61   0.31  11.89
H  16.39  15.38   8.84
H  31.56  16.39   2.34
H   6.32  13.23  18.57
H   5.20   4.99  32.83
H   5.84  20.82   1.46
H  20.17  26.62   8.49
H   8.86  31.38  25.00
H  29.02   7.26  27.20
H   6.69  17.42   1.43
H  15.93  11.05   2.11
H  31.37  20.93  32.32
H   8.33  28.19  31.67
H   6.33   1.08   1.00
H  27.45  14.04  26.74
H  26.22  30.61   1.28
H  16.09  11.21  26.73
H   6.09   4.70   8.22
H  29.93  10.32  14.48
H   6.43  13.37  17.48
H   0.29  23.74  18.41
H  32.86  18.79  10.69
H   1.17  20.15  13.99
H   7.62  22.58  19.34
H  30.15   5.87  29.23
H  16.78  33.02  30.69
H  10.35  16.25  21.80
H  30.03  30.72   1.95
H  17.53  22.34  27.02
H  18.57  23.27  27.15
H   1.03  21.95   8.06
H  12.35  28.11  14.00
H  26.56   5.28  30.32
H  10.25  22.02  23.38
H  30.23  16.40   4.66
H  16.02   6.12  27.11
H  13.49  24.70   3.24
H  21.80  12.02  27.92
H  18.05  26.83   5.69
H  19.27  23.04  28.02
H  17.11  21.05   1.54
H  27.26   3.80  29.57
H  20.66  29.53  27.04
H  18.10  17.74  11.42
H  25.52  18.67  31.33
H   4.53  24.29  21.96
H   2.47  17.79  14.58
H  17.54  13.08  31.69
H  25.68  31.59  15.98
H  14.24   2.04  10.65
H  18.89  18.93  22.13
H  24.48  19.63  21.12
H   7.21  21.22  32.79
H  12.32  25.73   8.12
H  14.28   4.01  29.09
H  30.52  19.02   9.20
H   9.31  25.93  10.64
H   9.62  17.60  22.94
H  11.60  11.26  16.60
H  20.65   6.92   6.08
H   3.25  10.54   3.20
H  14.35  17.18  27.38
H   9.56  10.94  26.63
H   1.37  21.32   8.85
H  21.85   1.24  32.82
H  22.95   6.62  11.14
H  25.30  23.32  15.70
H  12.04  18.76  11.77
H  10.94  29.95  16.69
H  14.40  12.12  21.92
H  32.23  20.67  24.25
H  33.24   2.28   6.02
H  21.17   7.89   2.79
H  15.58  28.25   5.71
H  10.24  24.80  10.00
H  14.69  11.46  27.79
H  14.86  30.27   7.66
H  28.02  26.03  19.00
H   3.46  32.90  31.60
H  19.89   6.16   7.31
H  19.23  29.11   1.19
H   2.57  23.86  17.46
H   6.53  21.77  18.22
H  30.08   3.63  11.28
H   7.52  16.26  27.30
H  16.99  28.50   6.65
H   0.03  24.79  14.54
H  27.94  24.73  10.17
H   7.70  21.60   0.43
H  31.28  19.65  18.33
H  22.13  20.01  22.04
H  19.96  24.62  13.48
H  26.90   9.50   7.36
H   4.74   8.71  26.91
H   8.54  11.70  26.90
H   5.50  12.56  29.52
H   0.12  23.71  22.86
H   2.90  19.66  13.91
H  20.71   0.29   8.22
H  29.73  10.15  15.94
H  30.55  21.63   6.29
H   5.38  32.30  31.31
H  25.43   2.48  30.49
H  19.54  29.75  27.47
H   4.85  13.19  31.47
H  16.32  10.14  27.08
H  14.16  29.03  28.69
H  19.46   7.51   6.95
H  19.35  28.89   2.40
H  16.25  31.98  30.90
H  27.41  19.72  11.28
H  16.94  27.76  28.35
H  33.09   0.81  30.93
H  23.33  23.24  17.78
H  21.91  18.96  22.17
H  18.56  16.28  10.75
H  31.90  12.56  13.45
H  11.35  27.28   0.09
H  20.09  26.99   9.64
H  15.09  22.11  27.51
H   2.52  16.82  16.25
H  16.85  33.18  12.38
H  11.04  27.99  15.99
H   9.32  11.83  28.45
H   2.34  29.75  21.71
H   5.27   2.21  11.47
H  25.24   9.66   0.46
H  15.43   9.79  18.34
H  32.35  14.52  19.11
H   4.56   6.48  15.09
H  14.06  22.54  23.09
H  30.26  11.76   9.72
H  22.36  25.00   1.84
H   1.08   3.45  12.45
H   1.92  12.12   6.63
H  29.98  29.45   6.45
H  15.27  11.56  17.23
H  22.66   3.14   2.48
H   7.22  21.34   2.08
H  15.76  16.41  17.73
H   0.38  26.95  15.39
H   8.80  13.26  12.09
H  12.97  30.32  15.89
H  22.36  22.20  31.03
H  10.15  18.44  10.13
H  14.09  11.02   6.33
H   8.16  20.30   2.11
H   7.50  23.34  16.75
H  15.90  12.81  13.75
H   2.82  14.95  32.59
H   8.54  27.60  30.78
H   9.42  16.08   1.11
H  32.73  13.82  19.88
H  13.38  14.53  10.26
H  10.71  18.06  19.81
H   2.14  19.35  23.67
H  22.34   2.34  10.66
H  23.46  14.64  27.56
H  11.16   0.08  24.19
H   5.56  23.34  15.43
H  29.74  28.50   6.80
H   9.83  18.82  22.66
H  31.09  11.86  13.52
H  15.54  21.16  30.48
H   8.98  28.03  28.98
H  32.71  14.01  12.65
H  19.79  28.07   4.82
H  10.08  18.97  19.53
H   4.02  30.24   3.32
H   4.88  16.92  22.04
H  19.18  25.32   9.93
H  31.92  21.01  23.05
H  29.23  31.73  15.84
H   5.55  11.02   9.48
H  14.64  29.91   4.74
H  28.45  13.25   5.09
H   5.28   0.24  16.08
H  20.47  21.16  19.54
H  13.81  21.29  25.92
H   4.43   7.24   1.58
H   7.26  25.01  17.38
H   7.09  18.80   1.03
H  14.45  19.50  21.02
H  17.90  13.28  32.72
H  18.29  11.30   7.47
H  26.02   9.35  16.54
H   2.31  20.60   1.27
H  11.20  19.46  11.80
H   1.16  18.83  14.16
H  21.07  14.70  12.33
H  20.66  32.13  25.53
H  12.14  11.85   3.90
H  12.52  22.50  31.28
H  26.29  12.55   8.29
H   1.52  29.11   2.84
H  11.89  30.89  32.49
H  16.27  25.00  23.83
H  21.55  22.69  30.56
H  32.03  20.51   0.31
H   5.40  12.34  30.83
H  22.53  16.70  20.72
H  10.47   6.62   8.92
H  26.90  24.77  13.55
H  30.48  11.43  25.24
H  24.18  29.79  10.65
H  29.05   9.98  13.81
H   8.08  11.40  32.55
H  24.48  26.59  27.33
H   6.21  17.04  26.20
H  33.13  11.71   5.31
H  26.36   3.71  21.88
H  28.57  27.46  31.92
H  24.75   9.79  17.54
H  12.17  26.88  13.44
H   7.65  23.54  17.79
H  28.39  20.37  23.06
H  12.74  19.61  30.12
H  14.29  22.07  19.15
H   6.88  26.73  10.31
H   7.55  22.93  10.19
H  22.21  16.04  21.61
H   1.57  20.79  18.23
H  14.24  21.22  30.23
H  29.69  11.39  14.33
H  16.69  31.64   0.74
H  20.93   6.22  31.76
H   2.77  21.85  13.55
H   1.84  17.54  12.29
H   6.76  17.01   0.32
H  30.66  13.42  13.38
H   4.87   2.61  16.92
H  22.64  14.97   3.65
H   4.73  20.81  19.36
H  14.09  24.27  16.54
H   6.84  31.41  23.26
H  24.01  28.59  29.87
H  28.20  10.61  16.01
H   9.45  27.73  31.57
H   4.89  16.63  20.30
H  11.11  16.75  22.29
H   1.65  18.92  12.92
H  20.17   9.73  19.29
H  30.45  12.72  19.55
H  18.72  29.18  27.05
H   6.40  15.16   9.42
H  32.74   0.85  32.25
H  19.99  25.84   9.24
H  15.03  29.45  18.60
H   9.78  16.13  20.89
H  27.95   9.28  32.38
H  23.54  31.97  20.57
H  25.94  22.71  24.40
H   7.51  20.11   7.99
H   0.69  10.36  23.73
H  15.70  22.72  26.83
H  11.64  28.54  22.59
H   3.99  20.98  18.62
H   6.76  23.29  26.93
H   5.21  30.88  22.15
H  19.57  17.55  19.60
H  20.14  17.90  18.68
H   6.24  19.91  10.59
H   5.34  16.79  18.46
H  26.58   2.32  30.96
H  19.62  17.59  31.44
H  12.31   8.64  25.52
H  10.58  18.87  20.90
H  11.53  27.05   1.97
H   0.08  15.08  23.50
H  28.36   9.17  13.98
H   8.93   9.62  21.61
H   3.62  15.70  20.63
H  32.60   3.15   6.04
H   7.71   3.51  32.19
H  27.13   1.85  29.69
H  11.82  26.13  30.10
H  13.84  23.88   4.00
H   9.77  12.73  28.08
H  10.92  25.29  27.85
H  19.42   4.13  28.89
H  28.56  11.10  13.69
H  15.55  22.45  24.59
H  22.20  10.65  20.96
H  16.92  32.95   1.12
H   2.89  23.26  22.70
H  33.13   2.91  20.84
H   3.75   2.78  17.42
H  30.74   9.68   5.03
H  13.43  25.32  10.75
H  12.33  19.25  29.12
H  20.45   3.24  25.26
H   6.43  21.71  13.15
H  22.66  17.27  13.73
H   4.62   3.32  17.70
H  17.32  16.95  11.74
H  19.81  18.20  13.71
H  27.06  12.18   0.35
H  21.74   4.01  13.64
H  14.66  10.62  18.04
H  19.46   3.77   0.91
H   7.79  21.07  22.14
H   5.93  21.66   0.40
H   1.68  16.00   9.79
H  29.55  15.25  26.01
H  20.68  15.55  19.84
H  11.70  26.20   0.15
H   3.84  13.38  29.82
H  18.44   7.38   2.89
H  16.70  30.31   1.79
H   8.33  18.72  20.40
H  15.64  30.86   1.66
H  24.26  13.30  30.86
H  19.63  29.29  26.48
H  15.87  28.30  27.03
H  22.65  18.22  27.01
H  13.47  23.70  26.17
H   9.16  17.12  20.39
H  27.34  10.30   2.01
H   7.16  23.80  13.44
H  14.05  13.41   5.43
H   0.18   9.38  12.87
H  20.22   5.52  10.27
H   6.22  28.00  10.99
H  22.01  13.29  18.68
H  16.56  19.60   5.88
H   1.27  29.65  31.89
H  15.07   8.05  17.49
H   7.32  10.50  32.09
H  15.17  25.17  23.49
H  30.44  20.81  22.68
H  17.85  29.21   0.02
H  30.41  31.72  17.59
H  17.60   8.45  29.03
H  33.43  11.42   1.63
H   3.15  32.17  11.99
H  15.69  21.10  29.26
H  33.14   5.89  27.70
H  23.18  12.02  26.10
H  13.77  29.15  27.58
H  14.89  28.98  27.70
H  18.04  29.74   6.06
H   6.91   8.40  26.30
H   6.13  19.60   8.09
H  26.98   1.11  30.61
H  27.39  22.16   8.32
H  21.81  21.66   3.67
H  25.65   8.36   0.01
H  10.82  12.48  15.22
H   0.39   1.52  16.74
H  22.24  22.04  29.93
H  23.34  25.51  19.48
H  15.42  13.33  30.66
H  12.58  11.51   8.19
H  30.56   4.61  10.70
H  17.42   1.19  31.66
H  16.25  31.68   2.15
H  14.10  12.11   6.29
H  15.74  23.34  25.94
H  14.68  13.80   2.04
H   1.16  27.77  28.48
H  16.08  10.36  26.05
H  12.11  29.54   7.25
H  19.02  20.17  26.09
H  19.32  23.25   7.86
H  18.56   2.32  27.85
H  29.49   5.09   5.95
H   0.78   8.78  27.82
H  12.76  20.01  31.22
H  17.44  17.24  10.75
H  16.84  27.51   5.85
H   7.50  25.48  15.37
H  25.10  10.35  15.74
H  27.99  11.17  14.69
H   4.93  33.42  22.92
H  18.49  27.67   5.16
H  30.18  12.02  12.78
H  24.59  19.67  28.07
H  11.37  18.80  10.53
H  22.77  12.87  16.05
H  29.39   9.45  14.68
H   6.03   4.24  33.23
H  24.46   6.43  22.31
H  24.54  26.04   0.95
H  32.89   2.53   4.92
H   9.84  18.35  20.32
H   1.12  13.10  27.31
H  23.70  23.70  21.29
H  11.40   6.80   8.40
H  19.02   3.71  24.30
H   2.74  16.95  22.44
H   2.18  18.80  14.04
H   0.10   4.13   5.15
H  12.67  23.65   4.24
H  18.96   6.41  32.57
H  17.39  30.15  30.41
H  33.16   3.52   4.21
H   2.12   8.82  30.24
H  17.30  26.36   3.67
H   3.90   7.20  22.41
H  28.31  19.43   7.70
H  13.42  23.59  32.03
H  24.14  25.93  18.84
H  20.99  16.00  23.94
H  25.53  20.51  20.94
H  12.33  25.83   0.90
H  30.39  20.53  26.31
H  20.23  16.24  18.82
H  27.69   9.46  15.11
H   5.90  16.87  14.28
H  19.74  13.73  23.79
H  26.86  27.18  27.34
H  17.10  14.84  31.68
H  32.62  10.63   6.73
H   4.21  16.32  23.31
H  11.64  21.96   2.37
H   9.23  11.02  21.64
H   2.82  21.20  28.96
  864
  Step: 20
H   6.04   0.65  15.52
H  13.90  32.96   3.42
H  22.87  26.48  22.70
H  15.99  20.84  12.91
H   7.26  22.31  17.94
H  24.33  15.45  16.62
H  19.61  17.61  15.90
H  22.92  33.30  18.45
H   9.94  25.80  31.41
H   3.13  18.78  14.53
H   7.34  21.71  13.36
H  14.62  28.88   9.27
H  23.86  14.52  17.09
H   6.25  12.10  31.76
H  21.69  13.44  26.40
H  26.53  10.39  15.23
H   6.61  28.91   4.94
H  27.55  21.09  16.61
H  33.14   0.37  24.86
H  19.56   9.93  19.32
H  27.90   2.69  28.98
H  30.00   9.43  13.71
H  21.67  31.85  26.06
H  27.93   8.29  15.85
H  27.04  10.52  14.34
H  24.77  17.36   9.29
H  32.44  29.16   4.82
H  12.15  32.85  10.00
H  16.13  27.70   4.98
H   5.54  22.60   1.17
H  25.61  32.07   2.26
H   2.06  18.56  15.33
H  10.68  19.04  22.07
H  12.59  24.76  16.94
H  28.30  10.12  14.68
H  11.05  18.00  21.63
H  32.44  22.22   4.93
H  10.89   3.40   4.66
H  29.15   8.02  13.86
H   0.50   5.20   4.69
H   1.48   2.68   6.97
H  11.32   5.74  14.51
H  27.63   8.41  14.68
H  11.66  26.71   1.16
H  29.10  10.74  15.17
H  13.08  16.97  26.65
H  29.48  12.65   1.95
H  13.40   0.31  28.14
H   2.10  27.20  31.49
H  16.79  22.84  26.28
H   2.24  24.13   0.61
H  19.05   0.67  28.85
H  10.69  17.98   0.58
H   5.88  25.18  30.89
H  28.47  11.84  27.76
H  25.33   1.93  31.37
H   1.17  19.72  15.90
H  28.20  11.30  11.57
H   6.49  18.91   1.63
H  13.11  11.93   3.50
H   3.39   6.40  14.24
H   1.73  19.71  14.85
H   0.56  12.40  26.29
H  29.23  11.38  10.14
H  17.72  26.59   7.77
H  14.16  26.35   1.67
H   3.09   0.77  29.03
H  11.62  24.69   4.96
H   5.87  26.28  13.81
H  29.38   2.57  21.32
H  21.98  14.01  25.59
H   3.46  14.73  29.38
H   4.10  14.15  28.79
H  24.66   2.10  29.74
H  12.94  27.71  14.95
H  18.22  16.86  13.78
H  20.76  13.76  26.78
H  27.73   9.21  12.10
H  26.10   3.51  28.42
H  10.35   5.90  13.85
H  13.04  24.77   0.94
H  12.89  25.59  31.55
H  31.26   9.63  14.31
H  13.65  28.73  12.54
H   2.95  14.89  14.98
H   1.81   8.19  18.40
H   7.93   0.42  14.54
H  22.94  17.11   7.61
H   3.27   9.91   5.21
H  11.58  24.94   1.00
H  10.12  19.70  21.45
H   8.33   0.87  21.46
H   8.39  16.15   3.64
H  17.90  28.98   6.91
H  22.35  27.18   4.67
H  11.90  25.37  32.29
H  15.53   9.07  17.01
H  13.08  21.93  10.50
H  11.03  19.11  20.80
H   6.72  30.66   4.70
H  15.62   8.93  18.90
H  26.84   2.89  29.17
H   0.65   3.57  24.69
H  25.17  15.44   8.57
H  20.02   2.16  15.21
H  31.81   3.26   5.27
H  25.04  14.78  17.22
H  17.60  28.10   7.78
H  20.50  11.84  26.89
H  18.87  12.98  10.39
H  16.04  21.52  27.78
H  21.99  20.84  27.00
H  24.58   4.75   7.46
H  22.20  18.16  21.56
H  14.95  22.03  29.70
H  10.30   9.29  30.57
H   4.02  13.70  30.81
H   6.16  23.65   9.86
H  32.28  28.00  30.90
H  23.22   5.62  24.76
H  24.51  16.33  16.03
H   3.91  15.32  32.45
H   0.27  14.78  19.99
H  16.38  23.67  26.95
H  26.43  16.80  10.99
H  17.06  10.60  16.04
H  26.82  11.39  13.78
H   9.38  17.50  21.12
H   8.12  22.20   3.04
H  20.20   8.59  14.54
H  21.16  22.89   1.04
H  21.98  14.63  26.64
H  14.83  22.73  26.25
H  33.29  21.25   8.79
H  25.19  18.56  32.84
H  28.90  15.72  27.40
H  17.57  27.57   0.25
H   5.55  18.51   1.18
H   9.49  14.34  14.57
H   3.06  10.30  25.07
H  12.57  21.20  28.83
H  11.71  26.50  15.35
H  23.68   4.69  24.11
H  19.07   3.97  32.55
H  30.72  18.87  18.87
H  29.02  17.26  21.18
H  12.67  31.67   1.80
H   0.80   4.21  11.25
H   2.05  17.95  13.37
H  31.26  27.96  15.00
H   2.97  17.76  15.61
H  18.09  24.18  19.73
H  25.80   1.79  29.69
H  27.57   9.21  16.18
H  16.39   6.46   0.48
H  17.67  28.56   5.69
H  26.77   1.86  28.75
H  19.21   5.29  31.84
H  26.91   2.77  27.90
H  19.41  32.43   6.66
H   5.41  13.74  30.65
H  10.17  19.76  23.19
H  14.53  23.88  19.97
H  29.74   1.81  22.01
H  26.67   8.74  15.50
H  33.18  28.99  19.67
H  28.50  11.84  26.06
H  11.72  28.03  14.05
H  12.38  25.40  33.34
H   6.42   1.54  17.93
H  13.75  25.34  33.27
H  28.70   9.39  15.80
H  29.04   9.88   4.98
H   6.99   3.54   1.89
H  11.42  24.33  32.22
H  28.51   3.87   4.43
H  32.48  27.69  29.88
H  30.13  11.06   4.64
H   5.06  15.53  31.88
H   8.01  14.32  17.74
H   1.68  22.24  15.61
H  32.57  30.96  17.47
H  23.98   1.27  29.91
H  25.16   2.86  27.91
H   8.15  30.48   4.65
H   1.32  23.90  31.79
H  12.76  18.64  13.19
H  31.36   2.05  26.02
H   4.38  25.71  13.62
H  15.82  26.75  19.29
H   7.54   8.86  17.70
H   1.13   8.39  29.01
H  26.38   0.93  29.57
H   4.44  14.73  30.03
H   1.72  24.47  12.89
H  12.73  16.60   8.86
H  21.98  29.22   5.20
H  17.91  27.77   6.42
H  30.97   5.08  24.21
H  15.32  21.58  26.46
H   8.54  10.40  27.12
H  15.03  29.81  23.85
H   6.76  10.38  29.49
H  33.32   4.09   5.82
H  26.60  31.20  13.77
H   9.02  18.43  20.79
H   7.38  14.87  29.58
H   6.67  20.12   1.52
H  32.15   4.08  28.15
H  23.57  26.05  25.36
H   5.44  14.07  32.58
H  30.48  27.22  30.73
H  28.27   8.14  11.75
H  27.15   5.42  29.51
H  24.76   3.13   8.27
H  32.66   3.39   4.18
H   8.32  21.45   1.34
H   1.24  29.23   3.65
H  29.59   8.67  23.30
H   9.88  18.42  21.53
H  21.78  13.86  27.41
H  19.79   4.82   0.58
H  27.30  19.10   6.95
H  13.42  14.05  15.67
H  21.50   2.66   1.30
H  10.11  17.32  21.76
H   6.63  20.84   0.62
H  20.66  12.92  26.10
H  32.02   4.00   6.28
H  23.30  31.20  24.37
H  14.67  23.54  12.65
H  28.94   4.97  21.49
H   9.08  25.97  21.16
H  16.17   9.69  17.57
H   2.17   7.30  14.52
H   4.51  18.10  32.68
H  21.52  12.96  25.37
H  17.62  23.45  26.72
H  32.72  18.39   8.94
H  11.09  33.22   5.47
H  18.27  27.02   4.21
H   9.19   8.45  23.25
H  27.36   3.29  15.71
H  10.62  17.99  22.77
H  12.15  30.18  13.19
H  27.34  11.47  27.88
H  22.55   3.92  23.77
H  27.56   5.37   9.03
H  30.79   2.65   7.66
H   2.27  21.79   1.39
H  22.44   0.92  22.24
H  14.98  28.06   3.89
H  11.80   0.39  10.50
H  14.91  28.71  26.56
H  11.84  25.64  16.98
H   3.39  13.45  31.78
H   2.44  18.10  19.72
H  11.22  30.44  13.77
H  10.90  25.88   0.88
H   0.68   7.58  30.45
H   8.06  18.61  21.80
H   6.01  19.64  29.33
H  24.73  15.19  18.87
H  21.13  14.30   0.64
H  13.49  23.13  23.93
H   0.07  12.66  14.31
H   7.27  25.18  22.62
H  21.62  12.00  26.16
H  11.74  27.75  15.80
H   5.25  17.37  17.87
H   1.07   1.27   1.21
H  29.62   1.25  23.14
H  23.21  27.34   6.80
H   9.92  18.73  20.38
H  16.37  22.96  27.72
H  24.99  30.76  12.47
H  27.28   3.14  30.63
H   3.76  14.24  32.63
H  11.85   0.63  16.05
H   1.94   7.65  27.46
H  10.20  17.88  12.68
H  10.60  17.75  20.81
H   5.49  19.57   1.46
H  22.62  17.84  29.35
H  29.85  27.82  27.59
H   7.62  22.22   1.40
H  17.55  17.79  13.62
H  25.62  15.59  16.38
H  16.99  29.48   6.09
H  12.44  28.79  12.89
H  17.19   8.06  26.09
H  24.62  14.16  27.67
H   9.21  23.09   3.47
H  20.65   4.21  12.20
H   6.09  23.89  22.64
H  11.61   4.81   9.05
H  32.74  11.39  28.06
H  16.46  21.98  26.85
H  10.24  31.54  17.65
H  11.49  24.41  16.78
H  29.75   3.67  14.60
H  27.08   8.34   2.05
H   2.45  20.51  14.87
H  26.73  28.74  20.06
H   2.84  10.33  21.35
H   7.14   4.44  11.71
H  18.08  17.50  12.51
H   3.28  12.50  31.10
H   0.67   9.66  18.33
H   7.61  20.76   1.23
H   5.55  12.09  25.72
H   5.19  21.85   2.38
H  30.82  23.99  10.19
H  30.48  23.73  27.01
H  19.25  27.97   4.34
H  18.63  28.17   7.34
H   4.19  21.95  28.47
H   2.13  21.32   3.18
H  14.22  23.40  17.85
H  13.19  29.56  11.81
H   4.72  13.08  30.22
H  25.21   1.12  29.21
H   6.29  22.12   1.72
H  17.48  29.19   4.50
H   0.88  17.10  15.43
H  29.39  28.37  20.55
H  12.92   1.18   1.39
H   0.12  25.81  29.30
H  26.48  18.43   7.75
H  19.85  17.56   5.05
H  18.73  16.49  12.21
H   6.26  19.28   0.59
H  21.95  13.32  28.76
H  11.76  10.38  13.82
H  21.22  23.17   5.45
H   6.55   4.62  30.18
H  33.50  30.24   4.96
H  17.17  21.50  27.82
H  28.54  17.64   4.82
H  26.09   2.29  27.49
H   1.57  31.10   5.01
H   0.04   1.08   6.35
H   7.15  32.57  13.57
H  24.72  30.80  10.30
H   2.11  20.78  13.84
H  17.30  20.17  29.20
H  12.41  26.74   2.32
H  25.89  19.61  18.52
H  29.37  16.85  13.79
H  28.82  28.55  30.48
H  11.86  15.02   2.85
H  27.92   8.38  21.49
H  24.93  27.80  24.51
H   7.06   0.87  10.96
H   4.06  13.55   0.17
H  11.13  11.55  12.60
H  21.10  12.62  13.01
H   7.54  19.16   1.01
H  17.68  26.31   6.62
H  29.28  26.07   3.21
H   9.79  30.48   4.82
H  26.79  10.20  10.53
H  25.13  32.02   6.88
H   2.68  19.49  15.21
H  19.31  29.84  19.68
H  30.75  10.29  15.46
H  31.05  15.32  20.72
H   0.88  21.90  16.24
H  32.12   2.06   5.60
H  30.52  28.26  14.29
H  26.47  16.47   9.49
H  24.50   3.87  19.45
H   1.38   7.49  29.57
H  21.85   9.92  15.73
H  23.49  28.02   4.44
H  25.50  14.39  28.47
H  15.02  17.63   1.51
H  14.09  10.00  16.82
H  10.47  18.15  19.63
H   9.77  20.33  22.21
H  30.80  33.15  26.15
H  13.28   7.49  32.20
H  14.46   9.53  17.81
H  14.97  25.63  33.18
H  24.20  23.27  30.64
H   8.37  17.53  21.34
H   2.79  13.71  33.00
H   1.88  17.56  15.87
H  21.32  12.76  27.08
H  27.31  20.65  17.65
H   2.31  21.42  15.57
H  11.54   7.42  22.55
H  24.30   1.70  28.70
H   0.09   3.85   4.65
H  16.86  29.96   6.99
H   9.81  16.40  23.00
H  13.22  26.65   1.33
H   2.10  24.80  11.83
H  16.22  32.91  29.89
H  25.67  21.38  18.15
H  13.19  26.20  32.47
H  17.90  26.06   0.43
H   2.21  28.69   3.54
H  10.90  16.28  26.89
H  17.68  26.36  24.04
H  12.88  13.13  17.16
H   1.63  20.54  19.53
H   8.75  15.59  22.39
H  28.67  26.93  28.17
H   1.34   9.14   8.07
H   1.60  19.71  11.64
H  25.96   1.27  30.60
H   6.46  17.82   8.88
H   8.30  16.20  21.51
H   7.71  32.41  19.49
H  13.15  23.25  33.06
H  16.94  23.40  30.36
H   7.31  19.42   2.41
H  32.47   4.92   3.74
H  16.74  12.72  18.26
H  28.37  25.27  30.62
H   7.93  25.04  18.15
H  14.06  26.31   0.49
H  22.21  26.34  10.27
H   7.48  26.85  22.80
H  17.17  27.38   6.95
H  27.89  10.18  13.44
H  16.57  13.53  13.05
H  26.46  18.22  18.38
H  17.62  27.91   3.91
H   1.65  22.02  14.42
H  29.03  32.47   8.63
H   1.02  15.85   2.14
H  16.66  28.62   5.35
H  10.36  31.37  18.73
H  15.69  24.20  12.40
H  22.61  18.01   0.25
H   9.85  17.03  19.74
H  25.90   2.60  28.85
H   9.51   9.28   8.90
H  25.74   8.07   6.76
H  16.68  21.79  12.52
H   5.05   4.35   5.16
H   0.15   1.53  21.46
H   1.92  25.92  19.80
H  25.68  23.34   9.48
H  14.17  24.44  32.69
H   3.18  14.50  31.39
H   5.07  25.07  12.90
H   8.50  20.23   1.08
H  20.10   7.62  12.38
H  13.21   2.54  13.13
H   5.84  20.82   1.46
H  27.84  25.50  17.10
H   0.63  12.22  13.17
H  26.17  10.07  19.05
H  12.52   9.29   3.40
H  15.20  23.21  27.82
H  27.70   1.95  30.78
H   4.73   6.05  12.54
H  22.69   2.73  11.62
H  31.95   3.12  28.69
H  17.15  21.61  11.40
H   2.80  19.42   1.21
H  19.69   3.95  13.18
H  29.93  10.32  14.48
H   7.89  32.38   5.78
H   7.59   1.41  18.61
H   0.31  23.17  33.32
H   1.17  20.15  13.99
H  22.58  14.39  28.03
H  13.67   1.15  10.22
H  32.94  12.18  27.11
H  10.35  16.25  21.80
H   5.40  15.39   8.44
H  17.53  22.34  27.02
H   5.20  13.28  13.26
H  12.90  26.96  25.92
H  25.47  15.35  27.42
H  27.28   9.26  13.78
H  15.67  22.81  29.40
H   4.75  23.93  12.51
H  12.28  25.72  15.97
H  32.04   9.19  21.55
H  24.12  31.21   7.05
H  18.05  26.83   5.69
H  14.26   6.58  31.04
H  16.97  22.63  28.70
H  27.26   3.80  29.57
H   6.13   6.24  30.28
H  18.10  17.74  11.42
H  12.16  29.57  19.48
H  18.95   3.65  19.26
H   2.47  17.79  14.58
H   9.51  26.95  31.29
H  25.91  22.49  29.64
H  22.79  32.94   2.61
H   7.07  21.64  33.10
H  25.99  13.46  28.03
H  11.97   0.97  12.83
H  28.24  23.42  25.62
H  22.09  29.40  14.31
H   4.47  12.59  23.68
H   0.99   3.15  11.55
H   9.62  17.60  22.94
H  15.65  22.01  28.68
H   2.10   7.35   8.41
H   7.75  24.66   5.37
H   8.42  12.19  24.61
H  12.48  18.15  29.16
H  17.46  16.44  12.62
H  24.48  14.60  16.06
H  18.99   7.57   7.11
H  32.85   9.98   7.59
H   3.74  30.52  15.64
H   9.34  14.95  32.25
H  32.33  29.55  12.26
H  32.14   5.64  20.42
H  33.24   2.28   6.02
H  27.68   1.36  28.64
H  15.58  28.25   5.71
H  14.80  11.00  22.04
H  15.64  20.25  19.20
H  25.97   3.67  29.41
H  28.02  26.03  19.00
H  15.43  31.44  26.28
H   2.67  17.88  25.06
H   3.77  15.51  31.40
H  14.26  25.57  32.30
H  23.66   6.90  22.67
H  21.92  15.55   5.17
H   0.80   1.92   6.11
H  16.99  28.50   6.65
H   3.28   7.22  13.53
H  24.91   1.21  30.69
H   7.70  21.60   0.43
H  26.28  15.95   8.46
H  19.12   9.34  27.96
H   9.17  20.51   7.70
H  18.15  23.20  28.50
H  22.90   5.16  10.29
H  25.96   1.28  32.02
H  28.23   1.43  29.59
H  12.90  25.11  32.48
H   2.90  19.66  13.91
H  14.00  11.50  17.97
H   4.84   3.13  26.41
H  17.87   2.54  17.24
H   2.19  19.77  13.12
H  25.43   2.48  30.49
H   3.35  17.35  25.67
H   4.85  13.19  31.47
H  12.47  26.97  15.95
H  12.96  27.82  13.15
H  26.44  18.68  27.84
H  14.45  28.03   5.72
H  32.46   8.03  25.61
H  27.41  19.72  11.28
H  13.69  16.96   3.26
H  13.37  22.83   9.69
H  23.01   7.78  29.49
H  29.64  28.97  14.49
H  15.87  21.28  10.77
H  14.20   6.19   5.18
H   6.51   2.04  32.69
H  18.75  28.27   6.10
H  15.09  22.11  27.51
H   2.52  16.82  16.25
H  18.81   3.88   0.19
H  13.15  28.18  16.06
H   7.57  31.88  14.32
H  17.19   7.82  18.29
H   0.33   3.19   6.31
H   5.99  22.70  11.32
H  15.43   9.79  18.34
H   1.83  13.97  31.64
H  12.29  24.38  32.89
H  18.35  28.64   4.72
H   5.57  24.02  10.79
H  24.84  14.34   5.75
H   1.31  20.11  27.68
H  32.22  25.84   4.58
H  30.29   5.13   5.16
H  15.27  11.56  17.23
H  33.17   0.64  10.91
H   7.22  21.34   2.08
H  19.92   5.03  12.75
H  26.54  25.40   4.07
H  27.67  14.79  14.53
H  11.14   4.89  15.94
H  30.38  20.85  25.30
H  31.61   4.36   4.82
H  11.79  10.39   1.21
H   8.16  20.30   2.11
H  27.63  16.88  10.00
H  23.18  29.76  13.98
H  17.65  22.98  18.52
H   4.42   7.20  15.04
H  29.76  10.06  15.99
H  32.73  13.82  19.88
H  19.65  22.12   3.59
H  23.84  15.75   5.96
H  30.99  31.98  26.14
H  15.01  11.66  25.42
H  20.14  15.45  18.12
H  10.55  19.36   1.01
H  18.84  20.29  28.70
H  10.28  23.72  15.04
H   9.83  18.82  22.66
H  17.94  21.47  26.98
H  15.54  21.16  30.48
H  19.45   7.53   6.04
H   5.45  22.92   3.03
H  26.37  30.17  23.26
H  31.59   2.14  28.92
H  25.99  29.26  26.98
H  14.16  22.07  10.43
H  13.03  25.49   2.49
H  26.58  11.60  14.89
H  22.28  12.22  26.95
H  26.71   2.42   2.16
H  23.72  31.70   6.21
H   8.32   0.21  23.01
H  16.37  16.22  13.20
H  15.17   2.86  20.21
H  12.14  26.25  32.68
H   4.43   7.24   1.58
H  14.03   8.78  29.50
H  28.25   8.05   5.60
H   8.81  16.53  20.55
H  10.90  20.09  22.27
H  31.29   3.37   4.10
H  15.97   4.54  30.41
H  13.43  11.40   2.50
H   5.94   2.15   0.17
H  20.80   7.63  14.75
H   6.15  21.65  19.42
H  20.79  10.86   6.53
H  28.32   9.09  31.34
H  26.77  24.42   4.77
H   3.30  18.87  13.32
H   8.66  19.43   6.58
H   7.36  12.26   8.01
H  31.81   3.14   6.89
H  32.30   6.65  33.09
H   5.19  14.92  30.99
H   5.40  12.34  30.83
H  10.18  26.38  30.55
H   7.14   0.06  27.88
H  25.58  16.73  22.83
H  17.74  26.15   4.73
H   5.51  21.72   5.86
H  29.05   9.98  13.81
H  18.04  28.84   3.39
H  31.44   5.65   9.88
H   0.05  26.21   8.39
H  13.30  30.53  13.34
H   2.63  10.05  26.69
H  14.50   3.17   7.01
H  23.44  32.45  15.77
H  32.68  24.83  25.68
H  25.61   1.56  28.28
H  10.16  16.96  28.19
H  25.08  31.51  11.63
H  14.29  22.07  19.15
H  15.06  20.90  28.22
H   3.56  23.74   7.75
H   7.87  31.07   2.62
H   5.56  15.96  14.78
H  10.63  21.90  31.73
H  29.69  11.39  14.33
H  18.04  22.15  28.03
H  32.98  12.79  11.22
H  17.11   5.23   8.02
H  24.59   2.77  29.03
H  21.72  26.58  15.73
H  10.96  17.54  14.42
H   1.42   4.90   5.05
H  20.96   6.63  12.98
H   6.77  22.45   0.37
H  19.16  17.14  14.98
H  10.63  24.19  15.92
H  31.48   2.27   4.60
H  28.20  10.61  16.01
H  20.55  12.52  27.72
H  15.32   0.44  19.48
H  18.28   6.69   7.10
H   1.65  18.92  12.92
H   7.29  19.78   0.06
H  27.98   1.55  22.96
H  11.22  25.01  33.07
H  16.91  16.86   3.94
H  11.04  27.80  12.14
H  22.38  14.01   6.96
H  21.26   9.67   5.77
H   9.78  16.13  20.89
H  17.12  16.74  13.76
H  30.77  22.98  24.43
H  29.52  31.90   9.44
H   1.49  17.58  14.48
H  32.96  27.01  27.23
H  15.70  22.72  26.83
H   9.33  16.54  21.90
H  15.40  24.95  22.18
H   4.25  12.22  31.64
H   2.32  19.25  22.93
H  33.27   4.17   3.71
H   5.45  33.43  22.01
H   9.02  19.48  21.63
H   6.41  12.87   9.62
H  26.58   2.32  30.96
H  22.55  12.96  27.85
H  17.56  32.49   6.20
H  29.55   8.74  13.06
H  15.42   2.99  21.39
H  21.11   8.15  15.79
H  28.36   9.17  13.98
H   6.65  23.13   1.64
H  11.71  27.91  13.01
H  32.60   3.15   6.04
H   8.20  30.07   2.00
H  27.13   1.85  29.69
H   6.03   4.47  29.18
H  10.09   4.35   5.11
H   0.97  18.28  15.21
H  11.71  18.43  22.47
H  22.40   9.61  22.48
H  28.56  11.10  13.69
H   1.96  31.61   2.57
H  11.74  10.89   2.27
H  26.91  11.91  21.75
H  12.80  21.02  11.19
H  13.23  30.89   9.25
H   1.78  30.93  16.37
H  31.02  24.76   1.54
H  13.87  25.45   1.11
H   7.94   5.78   9.09
H   3.08  16.75  15.03
H   5.81  11.51  29.56
H  33.15  11.74  13.59
H   3.48  14.79  30.47
H  17.32  16.95  11.74
H   7.64  13.03  31.25
H   4.12  17.16  15.84
H  25.41  32.31  24.66
H  14.66  10.62  18.04
H  30.61  13.19  18.84
H  28.92  25.67   7.04
H   5.93  21.66   0.40
H  24.23  21.07  31.15
H  22.25  31.55  32.19
H  26.52  32.63  24.77
H  11.70  26.20   0.15
H   3.84  13.38  29.82
H  16.61  17.39  12.66
H  21.30  15.51   2.62
H  20.50  17.48  16.74
H  29.68  26.81  27.94
H  11.64  25.99   1.88
H   7.85  23.05   0.63
H  11.81   1.00  32.55
H  27.41  24.82  12.11
H  24.24  30.62   9.02
H   6.97  22.63   2.54
H  27.34  10.30   2.01
H  17.92  22.68  30.65
H   0.22   2.10   7.14
H  30.47  25.93  10.37
H   8.81  26.82  14.83
H  17.22  23.57  27.64
H  10.81  18.81  23.57
H  33.20   2.84   5.22
H  13.24  20.00   6.07
H  11.25  10.73   3.31
H  18.45  20.87  18.97
H  31.77  29.38   9.34
H  13.86  21.75  29.13
H  16.15  20.77  27.03
H  20.11  19.88   0.42
H  13.61  30.75   6.14
H  23.91   5.65  22.59
H  19.46   1.93  28.25
H  15.69  21.10  29.26
H  11.04  33.02  10.72
H  11.80  17.95  14.05
H  14.47  15.96   3.44
H  30.32   5.70   4.21
H  17.67   1.52   0.35
H  16.12  22.01  29.74
H   0.49  19.38  14.45
H  26.98   1.11  30.61
H  29.70  26.96   5.97
H  13.40  25.47  16.63
H   4.57  14.38  31.78
H  22.43   5.11  26.72
H  25.46  32.85   2.97
H  22.63   9.18  16.04
H   2.07   8.92  27.22
H  28.39   7.27  14.68
H  11.98  33.13  24.90
H  17.80  24.40  27.16
H  14.61   4.70  27.89
H   2.68   8.34  27.98
H  23.31  23.85  19.84
H   8.59  25.27  22.35
H  27.43   4.20  17.17
H  10.84  29.77  23.13
H  33.30  25.72  25.45
H  10.79  26.07  33.21
H  26.03  30.82  26.58
H   1.68   2.20  11.20
H   2.58   8.50  13.02
H  18.88   5.28  26.30
H  30.55   3.47   5.14
H   4.64  23.37  10.20
H  33.07  15.64  19.96
H  16.84  27.51   5.85
H  11.95   1.87   5.49
H   5.59  24.40  11.97
H  27.99  11.17  14.69
H  29.12   7.97  15.16
H  18.49  27.67   5.16
H   9.70  14.89  18.80
H  25.47  18.52  17.25
H  22.64  13.87  26.86
H  21.58   3.41  24.11
H  29.39   9.45  14.68
H  20.00  12.76  15.98
H  16.60  26.55   4.74
H   2.90  31.16  19.17
H  32.49  23.08  18.77
H  32.87   1.25   5.41
H  11.15  31.48   8.89
H  25.30  16.60   8.67
H  18.94  16.17  15.36
H   4.60  24.35  11.08
H  22.75  12.26  17.45
H   2.18  18.80  14.04
H   2.18   6.93  16.00
H  12.19   1.97  13.33
H   1.13   8.72  27.78
H   6.83  24.68  17.24
H  29.05  12.44   9.37
H   8.32  21.32  26.70
H  17.30  26.36   3.67
H  16.11  21.63  25.54
H  19.19   9.10  31.08
H  13.42  23.59  32.03
H   8.21  16.49   2.44
H  25.63  28.59  29.51
H  17.48  27.53   5.00
H  12.33  25.83   0.90
H  28.90  31.21  32.18
H  20.23  16.24  18.82
H  27.69   9.46  15.11
H  31.08  27.26  14.02
H  19.74  13.73  23.79
H  24.33  15.31  27.81
H  11.93  25.05   2.27
H  14.67  31.61  12.60
H   5.75  22.01  12.15
H   9.92   4.29   7.79
H   5.27  24.73   2.31
H  26.61  15.02  13.01
  864
  Step: 30
H  22.44  23.23  13.48
H   6.54   3.09  31.43
H  22.87  26.48  22.70
H   0.51   8.65  18.04
H  28.38   7.41  14.31
H  15.68  23.83  23.49
H  30.68  11.15  30.03
H  20.17  19.02   9.54
H  23.07  12.87  26.78
H   3.13  18.78  14.53
H  15.18  10.65  14.16
H  14.75  29.00  10.30
H   0.04  26.87  22.93
H   6.25  12.10  31.76
H  21.69  13.44  26.40
H  26.53  10.39  15.23
H  24.65  17.39   7.87
H  13.91  11.82  16.22
H   1.28   2.53   3.21
H  10.66  16.96  29.96
H  27.90   2.69  28.98
H  30.00   9.43  13.71
H  30.04  11.64  19.39
H  27.93   8.29  15.85
H  27.77  10.68  15.89
H  17.25  21.28  26.86
H   1.30  25.17  28.84
H   8.78  16.69  23.24
H  16.13  27.70   4.98
H   5.54  22.60   1.17
H  27.01   7.84  19.15
H   2.06  18.56  15.33
H  10.68  19.04  22.07
H   8.52  17.55  20.26
H  28.30  10.12  14.68
H  11.05  18.00  21.63
H   5.18  24.33   9.77
H  21.68   5.77   9.30
H  29.15   8.02  13.86
H   4.71   2.41  19.60
H  19.25  29.18   5.71
H   0.09   3.38   7.43
H  27.63   8.41  14.68
H  11.66  26.71   1.16
H  29.10  10.74  15.17
H  13.08  16.97  26.65
H   3.64  24.64  11.12
H  25.53  30.29  27.00
H  32.02  13.59  18.97
H  16.79  22.84  26.28
H   1.27  19.04   7.21
H   6.62   5.35  13.13
H  15.54  25.41  13.63
H   8.47  18.20   2.77
H   9.07  17.16   2.52
H  25.33   1.93  31.37
H   1.17  19.72  15.90
H   3.73  23.66  25.84
H   6.49  18.91   1.63
H   7.43  29.81   5.03
H  21.02   1.02  13.68
H   1.73  19.71  14.85
H  14.07   9.19  32.64
H  29.23  11.38  10.14
H  13.72  10.42  17.67
H  14.16  26.35   1.67
H   8.31  32.56  19.20
H  19.02   1.91  27.56
H  27.70  31.59  25.51
H  27.96   6.58   3.89
H  21.98  14.01  25.59
H  15.00  11.35  15.10
H  11.97  31.91   4.28
H  27.11   1.84  27.75
H   7.77  30.35  17.23
H  21.84  11.93  12.76
H  20.76  13.76  26.78
H  14.53  18.65  32.40
H  26.10   3.51  28.42
H  26.84  18.44  23.39
H  13.04  24.77   0.94
H  13.84  28.93  20.04
H   5.46  21.09   0.46
H   1.62  30.86  10.87
H   0.37  33.23  10.52
H   6.66  22.38   0.83
H   4.03  22.78   7.63
H  10.24  26.43  22.19
H  16.28  11.57  16.32
H  11.58  24.94   1.00
H  31.00  17.35  27.02
H  30.95   4.47   5.81
H  23.73  32.74  14.29
H  17.90  28.98   6.91
H  20.40   3.18   0.57
H  11.90  25.37  32.29
H  25.29   5.65  13.08
H  19.08   7.52  15.63
H   9.00  18.08  21.91
H   2.97   0.53   2.24
H  31.06   7.35   0.47
H  26.84   2.89  29.17
H   2.93  19.23  11.90
H   3.36  26.46  11.19
H  18.60   1.63  28.58
H  31.81   3.26   5.27
H  18.65  30.46   6.64
H  17.60  28.10   7.78
H  13.41  28.22  13.19
H  30.94  19.23   8.34
H  16.04  21.52  27.78
H  12.99  25.68  31.52
H  32.60   2.18   4.50
H  22.20  18.16  21.56
H  14.95  22.03  29.70
H  30.20   1.57  28.55
H   4.02  13.70  30.81
H  22.98  22.74   3.27
H  20.41  19.10  23.20
H   9.58  32.43   4.94
H   3.72  12.63  30.72
H  11.78  17.48  26.10
H  23.79  30.20  29.83
H  16.38  23.67  26.95
H  18.71   8.30   2.87
H   2.21  10.87  15.26
H  26.82  11.39  13.78
H   9.38  17.50  21.12
H   5.45  23.37   2.09
H  26.21   1.97  25.18
H  26.80  29.31  18.25
H  21.98  14.63  26.64
H  14.83  22.73  26.25
H  28.09  15.30   8.41
H   5.96  15.81   0.62
H  12.65  13.73   2.99
H   5.62  13.40  29.60
H  10.92  21.19   7.17
H  15.37   2.36  26.40
H  33.30  19.79   5.14
H  27.78  26.15   6.80
H  11.71  26.50  15.35
H   3.74  26.77   5.71
H  13.95   9.91  18.68
H  31.18   0.88   5.58
H  33.38   5.66  12.56
H   9.73  33.34  11.12
H  27.75  29.74  18.13
H   2.05  17.95  13.37
H  17.61  17.40  18.48
H   2.97  17.76  15.61
H  10.99  18.88  21.06
H  25.80   1.79  29.69
H  27.57   9.21  16.18
H  14.95   6.16  26.01
H  17.67  28.56   5.69
H  26.77   1.86  28.75
H   8.97  32.27  15.00
H  11.42  29.86  20.31
H  18.98  18.33  15.29
H   5.41  13.74  30.65
H  10.17  19.76  23.19
H  20.37  31.34  19.77
H  30.13  28.61  29.07
H  20.84  14.04  20.84
H   4.82  12.00  33.21
H   4.72  22.46  19.25
H  22.38  12.62  28.90
H  12.38  25.40  33.34
H   6.42   1.54  17.93
H  13.75  25.34  33.27
H  28.70   9.39  15.80
H   9.75  18.22  27.10
H  22.88  20.88   2.43
H  11.42  24.33  32.22
H  17.41  33.31   0.19
H  32.48  27.69  29.88
H  18.34  23.22  28.24
H   5.06  15.53  31.88
H  21.34   8.27  17.82
H  15.45  10.07  16.83
H  11.24  16.21  14.89
H  26.92  10.30  13.97
H   3.59  19.84  14.70
H   2.60  19.51  20.54
H  21.66  13.53  28.36
H   9.21   1.04  24.97
H   8.40  19.31   1.75
H  18.21  28.98   3.64
H  19.12   4.91  20.15
H   8.80   8.79   8.14
H  24.86   3.18  28.82
H  26.38   0.93  29.57
H  33.44   5.52   5.50
H  21.36   0.03  31.46
H   6.81  11.54  29.16
H   5.53  23.17   3.22
H  17.91  27.77   6.42
H  31.96  10.62   7.06
H  15.32  21.58  26.46
H  29.40  22.53  24.72
H   5.63  32.37   5.55
H  14.21  27.40  12.82
H  33.32   4.09   5.82
H  21.09  12.29  29.00
H   9.02  18.43  20.79
H  13.96  30.11  19.93
H   6.67  20.12   1.52
H  13.72   6.02   9.58
H  14.63   9.86  15.80
H   5.44  14.07  32.58
H  23.71  33.02  23.30
H   0.46   7.08  19.12
H  30.83  24.76   3.10
H  25.53  17.20   1.46
H  32.66   3.39   4.18
H  16.23  22.15   3.46
H   6.44  17.97  22.28
H  31.83  33.38   0.19
H   9.88  18.42  21.53
H  21.78  13.86  27.41
H  27.00  25.61  10.83
H   3.81  29.00  27.11
H  13.42  14.05  15.67
H   9.31  25.73  19.82
H  10.11  17.32  21.76
H   6.63  20.84   0.62
H  20.66  12.92  26.10
H  32.02   4.00   6.28
H  16.62  12.40   1.28
H  14.02  10.77  15.84
H  15.99  27.95   6.96
H  20.82  16.84   4.68
H  30.07  29.21   5.75
H  10.07   2.15  25.55
H  30.88  30.25  21.83
H  21.52  12.96  25.37
H  17.62  23.45  26.72
H  27.50   9.44   1.76
H  20.27  20.50   5.01
H  18.27  27.02   4.21
H   9.45   4.79  18.36
H  18.21  31.33  24.08
H  10.62  17.99  22.77
H   0.10   7.71  13.48
H   5.76  12.09  29.86
H   2.23  22.15   2.41
H   9.72   7.64   4.92
H  19.96  32.47   0.76
H  21.64  25.57  31.25
H  27.15   3.45  22.05
H  20.75  21.47   5.79
H  11.89  28.67  14.73
H  14.91  28.71  26.56
H  13.45   3.34  25.70
H   3.39  13.45  31.78
H   2.44  18.10  19.72
H  19.98   1.75  26.93
H  10.90  25.88   0.88
H  23.81  18.26  22.27
H   8.06  18.61  21.80
H  32.86   4.04   1.99
H  31.45  21.68   3.59
H   0.90   3.87  26.16
H  13.49  23.13  23.93
H  16.34   7.74   2.46
H  33.19  16.24  32.71
H  14.99  19.80  13.88
H  19.70  13.69  10.41
H  26.76  17.62   7.86
H  18.98  16.80   4.04
H   5.09  23.43  11.91
H  15.91  30.50   4.97
H   9.92  18.73  20.38
H  16.37  22.96  27.72
H   1.97  28.89   8.25
H  27.28   3.14  30.63
H   3.76  14.24  32.63
H  16.22   9.85  17.99
H   1.94   7.65  27.46
H  31.38  26.35  29.75
H  10.60  17.75  20.81
H   5.80   1.13   5.49
H  26.47  27.39   3.12
H   3.83   9.21  25.41
H   7.62  22.22   1.40
H  26.11   2.55   5.96
H  18.13  29.76   5.13
H  16.99  29.48   6.09
H  12.44  28.79  12.89
H  29.41  13.88  25.89
H   6.43  13.61  32.26
H  26.55  12.93  22.56
H   9.40  22.00   8.19
H  28.34  32.05  31.93
H  23.38  20.96  31.90
H  22.78  11.46  26.13
H  16.46  21.98  26.85
H  27.89   1.66  14.23
H   5.27  21.74   2.37
H  17.48  10.26  17.47
H  11.12  32.96  32.57
H   2.45  20.51  14.87
H  29.81   6.68   3.61
H   0.91   1.21   1.39
H   7.14   4.44  11.71
H  18.08  17.50  12.51
H  27.56   9.69  27.39
H   6.53  21.70  20.37
H   7.61  20.76   1.23
H  19.69  32.73  31.45
H  18.52  15.18  26.75
H  22.86  23.22  11.24
H   2.91  24.17  32.06
H   3.19  20.99  13.84
H  17.17  22.66  28.67
H   1.81  20.44  22.57
H   8.51  21.31   1.82
H  28.67  10.84  11.41
H  10.32  30.59  10.18
H   4.72  13.08  30.22
H  10.37   4.62  24.63
H   6.29  22.12   1.72
H  17.48  29.19   4.50
H   0.88  17.10  15.43
H   2.86  16.55  25.25
H   1.66   9.83  21.60
H   4.26  23.07  26.80
H  20.56   8.74  12.74
H  32.39  19.02   6.66
H   5.24  22.22  16.61
H   6.26  19.28   0.59
H  24.65  17.56  22.98
H  27.27  16.93   7.28
H  28.59   6.19   3.16
H  16.18  30.78  19.44
H  10.37  32.39  15.71
H  17.17  21.50  27.82
H  10.88   2.24   7.29
H  26.09   2.29  27.49
H   1.67  19.13  19.03
H   0.04   1.08   6.35
H  16.06  22.55   1.32
H  23.24   2.45  24.78
H   2.11  20.78  13.84
H   2.95  10.88  23.19
H  33.50  19.08  31.21
H  18.31  19.45  16.13
H  33.31  16.66  23.76
H  26.88  19.80  15.95
H  32.21   3.75   3.18
H  25.77  19.45  14.23
H   1.26   7.99  33.13
H  28.87  26.18   5.82
H   4.30  14.30  29.88
H  28.59   8.52  17.63
H  21.10  12.62  13.01
H   7.54  19.16   1.01
H  20.57  19.22  26.74
H   3.57   5.71  31.51
H   9.79  30.48   4.82
H  22.02  15.83   5.40
H  24.60   2.15  29.97
H   2.68  19.49  15.21
H  24.91  23.88   0.98
H   2.25  21.21  15.80
H  28.90  10.78  16.42
H   8.58   1.16  20.47
H  32.12   2.06   5.60
H   5.87   0.98  14.41
H  26.89   2.85  28.16
H   2.68  12.00  19.64
H  12.92  31.18   4.40
H  29.75  32.37  17.10
H   7.60  12.52  33.16
H  17.59   4.66  29.46
H  30.80   3.66   6.61
H  14.09  10.00  16.82
H  21.10  19.67  24.23
H  32.53  13.14   9.71
H   6.00  24.39   4.25
H   4.42  23.51  20.78
H  14.46   9.53  17.81
H  15.78  11.56  14.20
H  30.40   9.44  15.00
H   8.37  17.53  21.34
H   8.61   6.00  26.71
H   1.88  17.56  15.87
H  21.32  12.76  27.08
H   9.95  12.94  31.03
H   0.04  29.13   4.86
H   0.92  28.70  13.50
H   8.47  18.45   3.83
H   0.09   3.85   4.65
H  21.00  15.50   9.54
H   9.81  16.40  23.00
H  13.22  26.65   1.33
H  23.07  11.86  10.09
H  19.86   5.93  11.66
H   9.80   2.10   1.87
H  13.19  26.20  32.47
H  16.07  28.92   6.41
H  16.16  10.75  17.03
H  31.95  22.50   5.82
H   6.99   6.51  29.66
H  16.48  11.25  15.24
H   1.63  20.54  19.53
H  18.43   1.61   4.31
H  12.38  31.81   5.33
H   7.01  18.45  20.50
H   7.07  16.89  24.02
H  25.96   1.27  30.60
H   0.37  25.25  22.17
H   8.30  16.20  21.51
H  26.61  14.40  10.63
H  12.66  23.86   0.24
H   6.15  14.88  30.22
H   7.31  19.42   2.41
H  32.47   4.92   3.74
H  27.50  16.17   8.60
H  32.69  24.29  20.24
H  30.01  19.48  30.49
H  14.06  26.31   0.49
H  16.12   4.06  15.84
H  24.33  30.51  23.95
H  17.17  27.38   6.95
H  27.89  10.18  13.44
H  28.42   8.44  13.04
H  30.91   5.28  32.95
H  17.62  27.91   3.91
H  14.83  20.72  27.30
H  29.03  32.47   8.63
H  28.23  16.28   7.80
H  16.66  28.62   5.35
H  22.42   3.21  25.19
H   9.03  26.96  16.61
H  11.66  24.23   0.17
H   3.07  23.76  10.78
H  25.90   2.60  28.85
H  32.93   9.31   1.76
H  25.74   8.07   6.76
H  27.12   1.50  31.66
H  20.46   0.88   8.44
H   9.85   5.27  23.97
H  24.20   1.68   5.95
H  25.03  14.47  30.50
H  28.31  25.73   9.34
H   3.18  14.50  31.39
H  25.64  25.76   9.41
H   8.50  20.23   1.08
H  16.42  24.19   6.17
H  16.15   0.25  22.50
H   5.84  20.82   1.46
H  16.90  30.60  10.52
H   1.22  20.89  15.23
H  17.45  10.88  16.42
H   6.86  24.30  23.80
H  15.20  23.21  27.82
H  27.70   1.95  30.78
H  24.00  24.44  32.19
H  19.31  29.60  26.52
H  16.88   5.36  30.05
H  25.85  16.88  29.34
H   4.98   6.82  27.52
H  31.82   6.90  23.42
H  29.93  10.32  14.48
H  19.39   4.19  17.61
H  13.21  31.89  25.64
H  16.56  10.28  16.10
H  24.92   2.95  12.08
H  13.39  12.11  17.21
H  19.95  19.50  28.72
H  23.02   9.15  26.56
H   5.64  24.13  10.97
H  10.99  28.36   9.49
H  17.53  22.34  27.02
H  10.98  27.07   0.14
H   6.94   8.40  12.93
H  22.68  21.83  14.50
H  27.28   9.26  13.78
H  27.74  17.26   8.43
H   2.67  12.13  27.14
H  12.28  25.72  15.97
H   3.23  28.43  21.81
H  25.69  16.60   7.77
H  18.05  26.83   5.69
H  21.92  11.29  11.65
H   7.23  14.36  26.75
H  27.26   3.80  29.57
H  14.82   4.35  30.59
H   5.39  12.92  32.50
H  16.12  31.80  10.34
H  31.50  15.36   9.88
H   2.47  17.79  14.58
H   8.09  31.53  19.92
H   8.36  18.29   1.01
H  26.06  30.85  16.67
H  22.81  11.98  28.00
H  24.85  33.32   6.26
H   0.63   0.03  16.85
H   4.47  16.39  21.78
H  16.88   6.75  16.92
H  16.05  19.51  21.22
H  33.37  32.23  26.39
H  22.73  17.89   2.02
H  15.65  22.01  28.68
H  23.71  28.42   4.59
H  12.60  20.50   9.65
H   3.78  22.56   6.45
H  16.80  29.91   5.17
H  13.26  20.36  15.36
H  30.62   3.70   5.37
H  10.96  18.61  19.93
H  23.70   1.06   5.18
H  29.46  23.73  26.74
H   2.14   9.58  23.82
H  16.26  12.07  17.43
H  29.26  28.02  30.51
H  33.24   2.28   6.02
H  27.68   1.36  28.64
H  15.58  28.25   5.71
H  20.08   4.36   6.77
H  25.79  32.68  20.51
H  25.97   3.67  29.41
H  14.81  32.35  25.46
H  12.94  26.77  33.31
H  12.71  15.95  33.49
H   3.77  15.51  31.40
H  14.26  25.57  32.30
H   6.50  23.61   2.67
H  29.16  10.10   8.56
H   0.80   1.92   6.11
H  16.99  28.50   6.65
H  13.25   5.36   0.02
H  24.91   1.21  30.69
H   7.70  21.60   0.43
H  26.28  15.95   8.46
H   8.25  24.56  10.76
H   3.68  19.92  30.20
H  14.51  20.71  14.28
H  12.43  24.58  15.89
H   5.42  24.16  25.75
H  28.23   1.43  29.59
H  12.90  25.11  32.48
H   2.90  19.66  13.91
H  14.00  11.50  17.97
H  29.28   4.72   1.07
H  13.50  19.53   9.95
H   2.19  19.77  13.12
H  25.43   2.48  30.49
H  17.77  24.35  28.18
H   4.85  13.19  31.47
H   6.75  31.87   5.49
H  12.91   8.04   7.54
H  14.52   9.14   0.17
H   4.10  25.46  10.50
H  11.47   2.40  19.85
H  13.60  29.40  12.92
H  13.69  16.96   3.26
H   9.39   9.88  19.15
H  15.64  23.87  26.08
H  20.66  22.16  25.01
H  14.28  11.04  16.90
H   1.77  12.89  12.60
H  31.11  30.62   2.73
H  18.75  28.27   6.10
H  15.09  22.11  27.51
H  31.41  26.53  28.59
H  29.18  25.15  31.48
H  32.43  27.16  28.21
H  29.81  27.85  31.51
H  13.32   1.51  28.93
H   0.33   3.19   6.31
H   7.75  24.83  19.43
H  17.43   7.30  27.47
H  25.10  27.78  18.70
H  12.29  24.38  32.89
H  18.35  28.64   4.72
H  12.14  18.69  21.38
H   0.05  21.75  18.96
H   6.10  14.12  31.45
H  14.48  21.54  13.58
H  15.04  14.11   9.24
H  15.27  11.56  17.23
H  14.88   9.74   6.37
H   7.22  21.34   2.08
H  22.98  23.97   3.61
H  29.39  31.01  12.00
H  23.80  17.22   4.98
H  22.82  14.74  27.43
H  30.38  20.85  25.30
H  31.33   4.39   7.22
H  30.34  27.00  29.32
H   8.16  20.30   2.11
H  17.16  21.65  21.16
H  10.04  24.10  18.21
H  17.65  22.98  18.52
H   4.42   7.20  15.04
H  29.76  10.06  15.99
H   8.79   1.82   2.39
H   2.82  18.14  12.49
H  27.69   7.33   4.83
H  25.64  24.75  27.84
H  15.01  11.66  25.42
H  16.24  19.13  11.95
H   3.01  21.76   6.13
H   9.82  26.73  13.71
H   7.23  13.59  21.09
H   9.83  18.82  22.66
H  12.58   4.86  31.73
H  16.61  32.34   6.81
H  26.42   8.65   5.13
H   7.53  17.64  22.01
H   3.06  22.58  17.75
H  19.10   0.86  20.65
H  19.73  19.19  15.05
H  13.82  26.71  25.53
H  18.58  18.72  12.64
H  26.49  16.95   8.54
H  22.28  12.22  26.95
H   3.08   3.58  28.19
H   6.29  21.72   2.71
H  11.96   0.14   4.27
H  25.09  32.33  16.84
H  20.61  31.68  20.92
H  12.14  26.25  32.68
H   0.08  25.57  20.44
H  25.09   4.87  30.17
H  16.61   6.67  33.42
H   8.81  16.53  20.55
H   4.00  23.31  11.51
H  31.29   3.37   4.10
H  11.55  22.22  14.48
H  20.42  29.49   6.94
H   4.62  24.82  11.58
H  15.98   9.46   6.87
H  18.61  28.54   9.15
H   7.46   4.07  25.10
H  25.80  30.76  32.21
H  12.29   5.73  30.73
H   3.30  18.87  13.32
H  30.74   1.07  24.96
H  28.47   7.23   3.03
H  31.81   3.14   6.89
H  14.50  21.95  25.55
H   5.19  14.92  30.99
H   5.40  12.34  30.83
H   9.01   6.96   5.67
H  17.15  26.23  31.41
H  22.45  11.85  18.57
H  17.74  26.15   4.73
H  28.23   5.30  17.35
H  29.05   9.98  13.81
H  15.89  22.66  25.35
H  14.60   9.16  16.64
H  21.78  33.45  19.89
H  28.46   3.77   0.54
H   1.43   9.38  22.91
H  14.50   3.17   7.01
H  16.17  10.85  18.05
H  25.86  13.62  29.90
H  25.61   1.56  28.28
H  20.62  21.49  30.88
H  26.78   6.64  19.79
H  32.16   4.70   4.78
H  22.34  27.41  32.77
H  26.29  19.85   1.90
H  30.95   2.90   5.91
H  32.45   2.07   6.62
H   1.22  27.23  11.74
H  29.69  11.39  14.33
H  18.04  22.15  28.03
H   0.73  20.25  32.32
H  18.57  23.74  17.35
H  23.58   8.16  25.91
H  25.49  13.71  31.12
H  17.33  19.82  11.79
H   1.97   2.02   1.08
H   9.34  31.63  20.49
H  32.37  17.99   6.38
H  20.22  22.91  14.41
H   4.25  23.70  10.55
H  31.48   2.27   4.60
H  20.84  11.42  29.75
H  15.41  10.95  16.07
H  10.38   0.05   4.38
H  10.76  28.75  14.85
H  21.87  32.56  18.93
H   7.29  19.78   0.06
H  27.07   2.98   6.25
H  11.22  25.01  33.07
H  16.47   5.68  10.39
H  32.22  26.51  32.65
H  22.09  25.92  30.36
H  15.77  30.76   9.88
H   9.78  16.13  20.89
H  21.46  21.57   3.02
H  19.08   7.86  32.31
H   5.03   8.51  28.33
H   1.49  17.58  14.48
H  22.60  15.10  25.69
H  15.70  22.72  26.83
H   9.33  16.54  21.90
H  28.14  12.43  29.79
H   4.25  12.22  31.64
H  14.48  27.32  24.44
H  11.46  32.83   4.81
H   7.89   8.63  18.72
H   9.02  19.48  21.63
H  15.68  29.34   5.09
H  26.58   2.32  30.96
H  22.55  12.96  27.85
H  17.56  32.49   6.20
H   9.63  29.18   0.45
H  33.34  15.49   2.27
H   0.41  19.51   9.97
H  28.36   9.17  13.98
H   6.65  23.13   1.64
H  13.58  12.99  15.91
H  32.60   3.15   6.04
H  24.84   0.71   5.80
H  27.13   1.85  29.69
H   3.68  29.62  20.89
H   4.77  15.98  30.67
H   0.97  18.28  15.21
H  11.71  18.43  22.47
H  27.65  14.56  12.63
H  28.56  11.10  13.69
H  20.24   0.68  19.81
H  25.11  30.53  22.98
H   6.87  21.90  28.55
H   7.79   6.49   9.98
H  15.21  24.43   3.39
H   1.78  30.93  16.37
H   2.89  32.62  19.48
H  13.87  25.45   1.11
H  29.62  12.58  18.99
H   3.08  16.75  15.03
H  19.57   3.73  19.12
H   5.13  15.12  32.89
H   3.48  14.79  30.47
H  21.84  10.43   6.96
H   5.94  15.94  30.98
H  16.16  28.44   4.02
H  12.67  32.88   4.57
H  14.66  10.62  18.04
H   0.73  13.01  22.13
H  10.75   6.46  28.80
H  20.75  32.91  22.88
H  31.77  20.00  31.03
H  32.34   7.98  24.13
H  10.32  23.63  28.28
H  11.70  26.20   0.15
H  28.10  28.45  30.64
H  23.02  27.32   8.08
H   3.35  18.77  15.69
H  31.64  27.60  29.10
H  29.68  26.81  27.94
H  11.64  25.99   1.88
H   7.85  23.05   0.63
H  24.39  26.74   4.48
H   8.69  10.70  10.41
H   2.21  16.69  14.27
H   6.97  22.63   2.54
H   9.55  24.96  18.66
H  22.39   0.72   3.19
H   0.22   2.10   7.14
H  18.73  16.79  18.92
H  25.02  21.44  19.09
H  17.22  23.57  27.64
H  10.81  18.81  23.57
H  33.20   2.84   5.22
H  18.33  24.71  18.70
H  26.62  30.42  17.52
H  18.45  20.87  18.97
H  21.44  30.65  19.48
H  16.25   6.61  16.12
H  16.15  20.77  27.03
H   7.57  19.34  15.25
H  13.61  30.75   6.14
H   8.95  22.23   3.01
H  12.33  30.46  24.41
H   3.23  31.44  19.98
H  12.94   0.00   3.13
H   0.27   0.63  11.05
H  18.58  21.26  26.27
H  16.85  13.23  30.53
H  20.16  23.29   3.51
H  16.12  22.01  29.74
H  18.05  16.78  27.95
H  26.98   1.11  30.61
H  30.03   8.66  14.47
H  26.98  14.04  22.15
H   4.57  14.38  31.78
H   4.33  28.86  21.51
H  16.79  24.62  27.33
H   0.92  17.94   3.64
H  21.03   2.31  25.11
H   5.17  25.12  10.50
H  13.17  11.12  16.58
H  17.80  24.40  27.16
H   2.53  12.28   6.91
H  26.94  16.77  23.31
H   4.95  19.01  23.75
H  30.86  31.18  11.47
H  27.43   4.20  17.17
H  12.87  29.54  19.74
H  17.96  29.28  17.60
H  10.79  26.07  33.21
H   6.11   6.89  16.83
H  30.23  16.70  14.51
H  23.45   4.42  24.33
H   5.07  11.25  13.31
H  31.57   4.58  19.01
H   6.13  13.10  31.27
H  14.46  13.31  28.05
H  16.84  27.51   5.85
H   2.81  12.90   7.89
H   5.59  24.40  11.97
H  28.53   7.25  12.62
H  29.12   7.97  15.16
H  18.49  27.67   5.16
H  21.88  23.75  10.60
H  25.04  27.50  30.87
H  22.64  13.87  26.86
H  28.54  29.21  18.93
H  29.39   9.45  14.68
H  15.25  26.80   2.29
H  16.60  26.55   4.74
H  28.35  27.38  30.59
H  28.77   7.54   4.05
H  32.87   1.25   5.41
H  26.87  23.39  10.89
H  25.30  16.60   8.67
H  29.96  18.98  32.51
H  12.94  17.24  23.82
H  22.23  22.50  20.17
H   2.18  18.80  14.04
H   8.73  21.34   0.54
H  12.32  20.81  14.52
H  25.84  11.24  15.34
H  18.08  16.52  19.88
H  15.51  20.00  12.40
H  27.37   3.83  28.45
H  20.99  23.08  13.19
H  16.11  21.63  25.54
H  10.23   4.95   9.24
H  13.42  23.59  32.03
H  20.82  13.74  25.25
H   2.09  10.38  22.59
H  17.48  27.53   5.00
H  12.33  25.83   0.90
H   3.66  17.68  14.73
H   1.35  30.70  33.19
H  27.69   9.46  15.11
H  27.07  29.52  17.19
H  19.74  13.73  23.79
H   0.64   5.81  13.38
H   6.76  27.13  26.16
H  14.67  31.61  12.60
H  14.92   1.89  19.84
H   8.86  25.55  28.51
H   5.89   9.74   6.10
H  26.61  15.02  13.01
  864
  Step: 40
H  30.60   6.85  28.71
H   6.60  24.39  11.57
H  33.46  27.96   6.54
H  15.69  12.92  32.85
H  22.33   9.30  18.95
H   3.47   8.88  24.05
H   4.16  18.75  13.90
H   6.29  32.83  25.15
H  23.07  12.87  26.78
H   3.13  18.78  14.53
H  15.18  10.65  14.16
H  10.78  29.91  30.51
H  17.91  24.08  32.96
H  14.72  32.46   0.33
H  21.69  13.44  26.40
H  26.53  10.39  15.23
H  24.65  17.39   7.87
H  13.91  11.82  16.22
H  15.27   9.23  18.63
H  33.20  10.10  29.52
H  27.90   2.69  28.98
H  30.00   9.43  13.71
H   5.82   4.44   5.12
H  12.56   9.85   3.52
H  14.72   9.07   2.26
H   8.51   4.78   2.10
H  19.09   4.69  32.89
H   8.78  16.69  23.24
H  16.13  27.70   4.98
H   5.54  22.60   1.17
H  32.15  12.22  19.93
H   2.06  18.56  15.33
H  10.68  19.04  22.07
H   8.52  17.55  20.26
H  28.30  10.12  14.68
H  11.05  18.00  21.63
H  27.19  11.06  14.82
H  22.23  21.92   1.06
H   4.22  16.50  15.72
H  28.79  24.52  19.46
H   4.79  21.26   4.40
H   4.72  16.31   6.67
H  27.63   8.41  14.68
H  11.66  26.71   1.16
H  20.27   7.37  11.19
H  13.08  16.97  26.65
H   3.64  24.64  11.12
H  25.53  30.29  27.00
H  32.02  13.59  18.97
H  16.79  22.84  26.28
H  29.74   8.86  15.50
H  28.14  15.73  30.02
H  15.54  25.41  13.63
H  20.24  25.21   8.42
H  17.51  29.49   2.95
H  12.74  15.15  14.93
H   1.04   3.01   7.09
H   3.63  19.13  29.00
H   6.61  18.82   0.45
H  11.59   8.98  28.20
H   0.95   2.49   4.41
H   1.73  19.71  14.85
H   5.77  27.49   4.96
H  15.94  25.22  16.92
H  13.72  10.42  17.67
H  30.43  19.31  13.41
H  27.02   4.61  10.83
H   5.76  25.36  11.59
H  15.69   8.94  17.67
H  11.48  27.16  32.68
H  24.61   5.26   0.38
H   3.06   2.50  12.22
H  11.97  31.91   4.28
H  27.11   1.84  27.75
H   3.20  31.96   0.89
H  12.04  16.41  26.62
H  20.76  13.76  26.78
H   2.90  16.19  16.28
H  26.10   3.51  28.42
H  26.54   7.71   8.48
H   5.86  23.93  20.58
H  32.13  29.99  28.40
H   5.46  21.09   0.46
H  15.29  29.88  11.19
H  13.04   4.20  17.12
H   6.66  22.38   0.83
H  18.91  31.64  32.40
H  25.07   2.42   6.71
H  16.28  11.57  16.32
H  11.58  24.94   1.00
H   4.98  14.58  24.81
H  18.99   6.68  31.62
H  26.13  17.06  27.64
H  17.90  28.98   6.91
H  26.77  22.93   1.50
H  11.90  25.37  32.29
H  19.24  24.29   6.24
H   2.32  18.63  16.42
H   9.00  18.08  21.91
H  14.12  21.13  26.19
H  33.17  23.06   1.04
H  26.84   2.89  29.17
H   6.37  24.57  19.76
H  12.60   8.59  28.03
H  30.95  12.97  10.28
H  31.81   3.26   5.27
H   8.98  16.25  12.03
H  27.74  14.64   1.46
H   4.82  25.62  18.01
H  15.51  12.20  18.18
H  16.04  21.52  27.78
H  12.99  25.68  31.52
H  32.60   2.18   4.50
H  30.28  10.26   9.61
H  11.07  26.29  32.06
H  14.86  11.60  31.64
H   4.02  13.70  30.81
H  23.03  24.35  25.13
H   2.83  25.02  10.14
H  20.39  29.46  18.85
H   8.78  12.95  28.34
H  14.28  10.80  15.74
H  16.27  20.70  25.94
H  16.38  23.67  26.95
H  13.69  31.15  12.99
H  25.36  23.25  32.11
H  26.82  11.39  13.78
H   9.38  17.50  21.12
H  15.99  12.72  16.93
H  16.74  12.55  16.29
H  28.83  20.47  28.76
H  21.95  13.81  28.77
H  14.83  22.73  26.25
H  20.71  25.47  24.10
H  28.36  20.97  10.58
H  18.34  23.73  18.30
H   5.62  13.40  29.60
H   3.70  18.38  19.82
H   1.13   9.11  12.86
H   2.84  22.91   7.26
H  27.78  26.15   6.80
H  26.36   2.47  20.50
H  29.14  28.09  31.49
H  27.01   4.95  28.30
H  14.20   9.73  18.79
H  17.84   8.29   0.18
H  24.56  17.59   9.74
H  10.94  18.93  23.26
H   2.05  17.95  13.37
H   6.06  31.28  29.99
H   2.97  17.76  15.61
H  10.99  18.88  21.06
H  25.80   1.79  29.69
H  25.63  25.28  19.11
H  14.71  29.18  25.03
H  17.67  28.56   5.69
H  26.77   1.86  28.75
H  20.49  23.17  18.79
H  27.24   9.01  32.08
H   0.76   9.78  10.21
H   5.41  13.74  30.65
H   5.14   1.23  14.37
H  32.27  18.92   4.57
H   4.28   7.88  28.40
H  30.72  25.60  28.60
H   1.78  25.17  10.29
H  16.26  24.31  18.27
H   3.46   5.72  17.43
H  12.38  25.40  33.34
H  29.79  15.26  29.89
H  13.75  25.34  33.27
H  28.70   9.39  15.80
H  18.65  29.99   3.27
H  10.37  17.03  20.79
H   7.11  22.29  33.28
H  17.41  33.31   0.19
H  16.33   9.29  16.78
H  31.67   3.26  28.53
H   5.06  15.53  31.88
H   7.44  12.47  21.04
H  15.45  10.07  16.83
H   9.68   3.11  31.94
H  26.92  10.30  13.97
H   3.59  19.84  14.70
H  10.59  17.20  28.10
H  25.22  14.51   0.37
H  21.43  31.40   6.02
H   8.40  19.31   1.75
H  18.21  28.98   3.64
H   5.34   5.45  13.85
H   6.46  13.93  30.56
H   5.30   9.18  27.41
H  30.37  24.27  26.95
H  25.84   7.00  31.33
H  26.68  31.51   7.74
H  29.96   9.51   9.06
H  30.96   1.43   4.35
H  17.91  27.77   6.42
H  16.42   0.53  24.45
H  15.32  21.58  26.46
H  25.85   4.42  11.01
H  21.65  11.55  27.71
H  21.60  19.37  10.71
H  33.32   4.09   5.82
H  19.35  14.29  27.07
H   9.02  18.43  20.79
H  30.81  18.11  32.17
H   6.67  20.12   1.52
H  19.50  17.94  17.41
H  14.63   9.86  15.80
H   5.44  14.07  32.58
H  27.47  12.15  10.97
H   3.02  32.45   2.25
H  24.87   1.20  29.65
H  21.74  11.76  19.45
H  32.66   3.39   4.18
H  10.89  23.24  17.02
H  14.04  11.55  33.19
H  19.13  18.16   0.42
H   9.88  18.42  21.53
H  21.78  13.86  27.41
H  10.80  18.10  27.15
H  29.23   0.49   8.01
H  25.98  11.59  16.51
H  18.01  11.54   5.00
H  10.11  17.32  21.76
H   6.63  20.84   0.62
H  20.66  12.92  26.10
H  32.02   4.00   6.28
H  23.85  12.28  26.25
H  11.37   0.51   2.58
H   3.29  17.64  13.66
H  30.22   8.98  12.66
H   4.15  10.57   2.54
H   2.10  18.02  27.63
H  17.86  18.03  10.69
H  21.52  12.96  25.37
H  20.79   0.28  21.94
H   1.45   2.01   8.46
H   9.29   1.81  31.48
H  18.27  27.02   4.21
H  25.77   5.35  11.45
H  18.21  31.33  24.08
H  10.62  17.99  22.77
H  14.87   0.26  28.60
H   4.68   8.12  27.10
H   2.23  22.15   2.41
H   5.27  13.94   0.24
H   7.12  12.44  32.13
H  32.87   3.53  19.59
H  24.93   9.72  13.13
H  28.15  30.52  15.90
H  31.78  15.78  10.72
H   3.45  17.91  24.20
H   3.97  28.25   9.81
H  11.72   8.47  29.24
H   7.49  24.65  20.22
H  10.05  24.10  17.91
H  10.90  25.88   0.88
H  27.05  32.12   3.91
H   8.06  18.61  21.80
H  32.80  12.51  16.31
H  13.89   2.43   4.60
H  16.75  11.97   8.23
H  26.52  23.81  29.15
H   7.27  33.42  17.49
H  18.29  12.50  24.32
H   4.41  29.48  15.18
H  32.94   3.23   6.96
H  14.39  11.92  20.25
H  11.33   0.73  32.53
H   5.09  23.43  11.91
H  28.69  14.99   6.85
H   9.92  18.73  20.38
H  16.37  22.96  27.72
H   8.67   9.54  27.64
H  31.20  14.19  10.73
H   3.76  14.24  32.63
H  16.22   9.85  17.99
H  19.28  28.64  11.55
H  21.21  18.01  13.88
H  29.57   8.48  13.75
H  11.39  10.68   4.20
H  18.80  26.24  13.27
H  31.13  29.43  23.83
H   7.62  22.22   1.40
H  16.57  29.90   3.99
H  18.13  29.76   5.13
H  16.99  29.48   6.09
H  29.26   9.18  13.08
H  30.16  18.54   4.56
H   6.43  13.61  32.26
H  16.22  24.47  32.77
H  17.61  14.31   9.72
H  33.40   4.47  24.90
H  12.20  23.73  32.01
H  22.78  11.46  26.13
H  16.46  21.98  26.85
H   9.02  22.80   1.76
H  15.62  10.89  18.06
H   9.53  17.60  22.81
H  11.12  32.96  32.57
H   2.45  20.51  14.87
H  29.75   9.97  12.23
H  23.85  32.68   5.61
H  16.00  24.91  22.63
H  14.06  31.92  27.76
H  12.13   0.65   4.13
H   3.82   6.93  17.44
H   7.61  20.76   1.23
H  15.14  21.30  28.40
H  20.63   4.48  32.87
H   5.76  32.76  27.90
H  27.42   8.66  31.12
H  11.66   8.30  11.36
H  17.17  22.66  28.67
H  12.41  17.59  26.12
H   8.51  21.31   1.82
H   4.58  28.47   1.96
H  13.40   0.31   3.93
H   4.72  13.08  30.22
H  11.02  18.17  20.32
H   6.29  22.12   1.72
H  17.48  29.19   4.50
H   0.88  17.10  15.43
H  15.04  20.67  27.22
H   8.00  27.87  14.73
H  17.63  29.48  13.38
H  19.00  31.30   7.15
H  29.76  14.47  11.09
H  26.30  17.51  18.81
H  11.18  14.91  29.22
H  32.91  22.05   4.77
H  11.96   5.88  10.14
H  26.26  28.25  11.23
H   9.22   6.35   2.04
H  10.37  32.39  15.71
H  17.17  21.50  27.82
H  13.27  33.27  26.24
H  26.09   2.29  27.49
H  26.60   3.79  16.69
H   0.04   1.08   6.35
H   0.94   6.88   3.96
H   4.03  22.92  33.00
H   2.11  20.78  13.84
H  12.25   5.27   9.02
H  26.45  23.31   5.75
H  12.64   0.98  20.30
H   8.05  11.73   4.83
H  22.74  12.59  25.74
H  16.42  20.83   9.70
H  31.03   9.67  13.24
H  19.50  13.52  28.29
H  17.06  28.68   3.41
H   6.30  12.08  21.63
H   6.52  15.50  29.03
H   1.80   1.88  23.39
H   7.54  19.16   1.01
H  27.27   0.32  11.75
H   5.47  12.82  18.96
H  29.20  26.20  17.15
H  26.67  11.15  10.01
H  24.60   2.15  29.97
H   2.68  19.49  15.21
H   4.85   3.13  14.26
H  33.08   6.07   9.91
H  10.94  24.80  18.18
H   5.65  16.77  31.68
H  32.12   2.06   5.60
H  22.95  13.82  28.44
H  26.89   2.85  28.16
H  26.58   0.65  29.62
H  15.82   8.83   0.84
H  29.75  32.37  17.10
H  17.91  21.53   4.85
H  21.23  15.91  32.40
H  24.03   1.79  24.59
H  17.67  27.17   7.24
H  18.28   8.57   9.72
H  21.84  18.67  22.82
H  24.64  25.48  12.43
H  26.17  28.76  27.01
H  14.46   9.53  17.81
H   2.01  29.03  14.27
H   7.85  22.36   3.09
H   8.37  17.53  21.34
H   3.89  22.57   6.92
H   1.88  17.56  15.87
H  21.32  12.76  27.08
H  21.71  24.76   0.46
H  30.39  17.33  10.34
H  18.89  18.98  11.18
H   5.93  22.44  13.53
H   0.09   3.85   4.65
H   4.66  26.56   5.00
H   9.81  16.40  23.00
H  10.88  32.85  31.46
H  10.72  21.19  17.05
H   2.26  25.70  30.02
H   9.24  29.33  33.32
H  13.19  26.20  32.47
H  16.07  28.92   6.41
H  16.16  10.75  17.03
H  27.88  33.01   9.22
H   1.43  30.51  11.77
H   5.21  14.50  29.48
H  22.59  10.28  27.56
H  13.90  13.70  30.76
H  32.51  12.41   4.16
H   7.01  18.45  20.50
H  26.05   7.20   7.17
H  25.96   1.27  30.60
H  19.97  17.47   8.67
H   8.30  16.20  21.51
H   9.18  15.23  22.77
H  12.87   6.06   9.60
H   6.15  14.88  30.22
H   7.31  19.42   2.41
H  12.48  13.24  15.62
H  23.85   8.15  24.92
H  20.10  25.73   4.54
H  13.07  19.39  30.85
H  26.63  12.74  12.70
H  23.66  14.07  27.55
H  26.43   8.02  12.63
H   0.22   1.91   5.03
H  27.89  10.18  13.44
H  28.42   8.44  13.04
H   2.01  19.88   9.00
H  17.62  27.91   3.91
H   3.95  30.76   9.03
H  29.03  32.47   8.63
H  10.93  21.64  14.12
H  16.66  28.62   5.35
H  19.17  22.14   5.14
H  19.52   8.87   4.98
H  11.66  24.23   0.17
H   3.07  23.76  10.78
H  25.90   2.60  28.85
H  19.65  25.76  30.25
H   4.40  19.08  17.62
H  27.12   1.50  31.66
H  11.74  33.42  30.95
H   1.03  20.20  14.01
H   1.39   7.87  30.89
H   6.15  15.85  32.47
H  30.35  20.69  26.02
H   6.29  24.41  22.70
H   5.16  20.47  23.11
H   8.50  20.23   1.08
H  16.42  24.19   6.17
H  26.11  19.72   4.13
H   5.84  20.82   1.46
H  26.56   0.96  27.90
H  21.70   8.51  24.70
H   5.30  19.46  22.62
H  30.96  23.51   5.52
H  18.83  17.93  11.06
H  27.70   1.95  30.78
H  31.21  19.14   7.39
H  24.90  18.96  20.81
H  31.40  19.21  19.37
H   5.71  26.27  32.62
H   6.07  22.14  26.13
H  23.08  11.04  12.76
H  29.93  10.32  14.48
H   4.10  15.22  32.32
H   4.01  19.86   0.53
H  16.56  10.28  16.10
H  13.08  18.66  30.09
H  13.39  12.11  17.21
H   6.94  23.86  19.24
H  10.64  16.30  29.67
H   5.64  24.13  10.97
H  16.38  13.94  20.50
H  17.53  22.34  27.02
H  10.98  27.07   0.14
H  29.57  28.86  14.55
H   4.61  13.00  33.28
H  27.28   9.26  13.78
H  16.07   0.60  33.36
H  29.36   8.71  12.11
H   3.01  28.45  33.13
H  26.43   9.01  11.23
H  12.07  33.40  14.97
H  18.05  26.83   5.69
H  29.75  14.63  17.64
H  23.69  12.65  27.74
H  27.26   3.80  29.57
H   2.22  18.15  19.39
H   5.39  12.92  32.50
H   7.54  28.55  22.30
H   2.14  21.19   9.68
H   2.47  17.79  14.58
H  20.14   4.58  11.04
H  25.88   4.15  14.51
H   2.22  24.40  11.20
H  22.81  11.98  28.00
H  17.85   2.46  21.59
H  15.55   8.52  30.34
H   0.22   3.58  12.32
H  15.59   9.26  16.07
H   5.67   6.39   8.49
H  12.49  33.10   4.31
H  22.73  17.89   2.02
H  30.27  14.28   5.61
H   2.92  27.42   9.50
H  10.88  22.70  18.01
H  26.38  12.64  26.92
H  16.80  29.91   5.17
H  22.14  26.07   5.37
H  13.10  29.05  33.45
H   9.33  15.88  23.88
H   0.12   2.60   2.80
H  21.17   9.24  18.22
H   2.14   9.58  23.82
H  14.17   0.93   4.38
H   6.11  23.08   0.12
H  33.24   2.28   6.02
H  27.68   1.36  28.64
H  15.58  28.25   5.71
H  15.76  11.97  15.56
H   5.23  14.13  13.56
H  26.01   3.35  29.92
H  23.20  16.65  10.19
H  12.94  26.77  33.31
H  32.20  14.53  11.11
H  29.59  12.84  22.18
H  33.03   2.55  24.19
H   6.50  23.61   2.67
H  29.16  10.10   8.56
H   0.80   1.92   6.11
H  16.99  28.50   6.65
H  23.31  23.83   1.24
H  24.91   1.21  30.69
H   7.70  21.60   0.43
H   3.41  21.13   3.49
H  17.70  11.36  12.80
H  10.46  22.85   0.13
H   3.92  33.00  18.99
H  28.97  12.95  29.50
H  12.80  32.41  33.24
H  28.23   1.43  29.59
H  12.90  25.11  32.48
H   2.90  19.66  13.91
H  14.00  11.50  17.97
H  15.59  27.17   6.79
H  19.81  13.29  27.05
H   2.19  19.77  13.12
H  25.43   2.48  30.49
H  18.01  15.63   5.30
H   4.85  13.19  31.47
H   0.03   7.00  22.42
H  32.32  22.64  19.12
H  18.70  17.32   8.26
H   4.10  25.46  10.50
H   6.32  20.63  22.51
H  10.78  32.71   1.42
H   6.76  23.02  13.05
H  23.65  26.52  15.09
H  15.64  23.87  26.08
H  20.66  22.16  25.01
H  14.28  11.04  16.90
H  18.18  10.31   9.19
H   7.96  24.18  18.39
H  18.75  28.27   6.10
H  15.09  22.11  27.51
H  24.87  13.72   1.44
H  12.66  11.22  17.67
H   4.77   9.58  24.17
H   7.59  20.90  33.01
H  15.98  19.64  30.52
H   0.33   3.19   6.31
H  14.06  12.90  31.83
H   4.68   0.49   6.97
H  18.13  22.26   8.93
H  12.29  24.38  32.89
H  18.35  28.64   4.72
H  31.82   2.60  20.62
H  12.26  31.06  32.21
H   6.10  14.12  31.45
H  15.10   6.23  14.58
H  30.87  32.61  24.11
H  15.27  11.56  17.23
H  13.69  25.29   0.92
H   7.22  21.34   2.08
H  28.95  15.91  26.56
H  27.13   5.23   0.87
H  23.80  17.22   4.98
H  22.82  14.74  27.43
H  12.06   4.80   0.77
H   5.21  15.55  22.82
H   1.18   3.88  16.28
H   8.16  20.30   2.11
H  21.59   8.42  19.28
H  22.16  12.80  15.51
H  12.12  23.99   1.52
H  18.61  32.72  33.25
H  24.91  28.06  10.97
H   0.71   3.13   5.15
H   2.82  18.14  12.49
H   0.87   5.86   2.95
H   0.67   4.66   6.26
H  30.38  24.87  30.84
H  10.15  24.51  29.48
H  17.05  19.45  30.39
H  30.10  16.17  21.87
H  23.48  12.68  28.82
H   9.83  18.82  22.66
H  12.58   4.86  31.73
H   5.24  14.78  23.71
H   8.11   1.86  17.62
H   7.53  17.64  22.01
H  28.95   6.94  32.43
H  17.25  21.10  25.20
H  32.80  22.62  24.99
H  24.31  26.69  12.89
H  18.16  17.92  17.01
H   1.40   2.98  16.89
H  22.28  12.22  26.95
H   1.88  27.53  11.98
H  17.31   8.78   5.51
H   6.39   8.09  26.73
H   8.28  15.28  22.07
H  23.57  13.84  29.27
H  12.14  26.25  32.68
H  31.32  28.02   8.22
H  25.09   4.87  30.17
H   8.41   5.63  10.34
H   8.81  16.53  20.55
H   3.64  19.13  12.25
H  14.21   6.82  11.20
H   5.95   6.59   1.64
H  16.10  33.36  23.63
H   4.62  24.82  11.58
H   6.29   2.12   1.03
H  16.42  23.50  30.71
H  17.18  11.04  16.61
H  12.07  10.63   4.93
H  27.36  31.60  32.53
H   3.30  18.87  13.32
H   7.09  19.35   4.57
H  13.74  22.63   9.92
H  31.81   3.14   6.89
H  14.50  21.95  25.55
H   5.19  14.92  30.99
H  14.61   1.35  25.61
H   3.33  10.10  23.77
H  27.81  11.98  12.94
H   8.37  31.09   5.68
H  17.74  26.15   4.73
H  17.12  14.51  19.74
H  29.05   9.98  13.81
H  10.37   9.88  20.30
H  14.60   9.16  16.64
H  19.62  25.75   7.80
H  11.71  23.32  32.91
H  16.72  20.42  30.12
H  10.61  33.20   2.34
H  17.02  30.84   4.17
H   6.51  24.39  12.93
H  25.61   1.56  28.28
H  11.74  15.43  21.73
H  28.01   9.35  12.73
H  22.99  24.84  33.46
H   3.08  29.79  19.32
H  10.60  13.23  15.50
H  30.95   2.90   5.91
H  32.45   2.07   6.62
H  15.58  28.31  25.38
H  10.98  33.47   4.05
H  18.04  22.15  28.03
H   5.21  23.41  19.92
H   2.34  10.70  24.23
H   2.68  12.57  20.67
H   1.17   6.43  11.32
H  27.36   9.60  16.11
H   0.79   7.39  12.38
H  22.04   7.50   4.00
H  29.98   9.66   5.50
H  31.35  29.16  16.89
H   4.25  23.70  10.55
H  31.48   2.27   4.60
H  27.92  10.57  15.78
H  15.41  10.95  16.07
H  31.45  33.04  25.74
H  31.69   7.89  13.49
H  21.61  12.42  28.26
H   7.29  19.78   0.06
H   6.71  17.75  29.68
H  11.22  25.01  33.07
H  23.24  11.78  27.02
H  10.94  26.52  15.98
H   4.48  28.37  27.23
H  27.03  27.36  17.85
H   9.78  16.13  20.89
H  31.21  25.93  12.36
H   6.28  26.62   0.03
H  14.24  23.73  32.94
H   1.49  17.58  14.48
H   8.32  31.90  14.25
H  15.70  22.72  26.83
H   9.33  16.54  21.90
H  11.94  21.75  21.64
H  19.07  12.44  10.78
H  29.48  33.17   7.12
H  11.46  32.83   4.81
H  29.28  12.10  30.17
H   5.77  19.99   9.91
H  15.68  29.34   5.09
H  26.58   2.32  30.96
H  22.55  12.96  27.85
H  16.22  21.13  19.13
H  32.78   4.53   6.84
H  28.21  16.87   8.21
H  14.48  21.74  10.04
H  28.36   9.17  13.98
H   6.65  23.13   1.64
H  33.23  10.44  18.11
H  32.60   3.15   6.04
H  18.44  31.12  18.50
H  27.13   1.85  29.69
H  13.57   6.10  25.89
H  16.90   8.72   0.83
H   0.97  18.28  15.21
H  11.60  14.12  30.85
H  28.59   8.13  15.10
H  28.29  33.46   8.36
H  26.79   5.36  11.75
H  12.08   2.87  24.24
H  14.69  24.76  33.45
H  15.29  23.74  27.17
H  26.33  13.44  27.82
H  16.89  14.10  22.81
H  30.46  23.81  20.41
H  27.84   9.38  17.00
H  32.13  11.23  23.41
H   3.08  16.75  15.03
H  19.49  23.08  18.68
H   5.13  15.12  32.89
H   9.07  26.68  16.28
H  32.94  11.01  17.19
H   5.94  15.94  30.98
H  23.95  13.46  26.29
H  16.75  24.12  26.04
H  14.66  10.62  18.04
H  20.55  13.29  27.84
H  28.64   0.66   9.12
H   4.96  26.02  11.08
H   9.39  21.59  23.05
H  32.34   7.98  24.13
H  20.36  17.26  16.88
H  11.70  26.20   0.15
H  19.12   4.44  10.03
H   9.19  20.82   7.79
H   3.35  18.77  15.69
H  20.78  17.96  15.97
H  14.62   6.45  31.46
H  14.40  13.41   9.83
H  10.74  32.60   3.45
H  32.44   9.17  25.23
H  10.08  33.31  18.05
H   2.21  16.69  14.27
H   6.97  22.63   2.54
H  33.24  22.02  13.74
H  22.39   0.72   3.19
H   0.22   2.10   7.14
H  13.29  13.56   3.87
H  30.59  10.33  33.44
H  17.22  23.57  27.64
H   4.78  21.89  32.21
H  33.20   2.84   5.22
H  10.19  22.43  16.70
H  14.98  10.10  10.34
H  16.18  22.35  28.51
H  13.83  32.01  14.29
H  32.17  19.73  16.52
H  16.15  20.77  27.03
H  13.76  26.40  31.49
H   7.07  18.13   1.56
H   7.32  10.28  12.56
H  13.16   1.63   4.65
H  26.20  33.07  21.99
H   4.30  15.56  23.65
H  30.07  25.98  27.74
H   5.30  26.80  21.67
H  12.84  16.24  25.72
H  10.06  16.47  19.87
H   4.24  13.57  13.17
H   1.11  18.59  14.11
H  26.98   1.11  30.61
H  15.29  25.03  32.37
H  14.89  12.86  12.66
H   4.57  14.38  31.78
H  31.64   3.75  20.24
H  16.63  23.27  21.08
H   8.40  19.80  33.48
H  29.37  30.04  12.71
H   5.17  25.12  10.50
H  13.17  11.12  16.58
H  22.63  12.84  16.52
H   6.28  23.33  11.98
H  26.94  16.77  23.31
H  15.01  14.19  28.57
H  17.62  18.33   2.87
H  10.93  14.42   3.58
H  12.23   0.11   3.28
H  17.96  29.28  17.60
H  10.79  26.07  33.21
H  15.78  15.68  16.37
H  13.20  15.61   0.64
H   4.02  12.81  15.67
H  21.59  10.09  30.34
H   1.74  17.46   1.19
H   6.13  13.10  31.27
H  14.46  13.31  28.05
H  16.84  27.51   5.85
H  20.34  20.90   2.14
H   5.59  24.40  11.97
H   5.24  32.76   5.03
H  13.71  11.49   6.71
H  18.49  27.67   5.16
H  26.83  14.19  30.14
H  28.37   1.63  27.92
H  22.64  13.87  26.86
H  27.64  20.45   6.13
H  29.39   9.45  14.68
H   6.14  23.13  18.81
H  32.54   8.70  26.48
H  22.30  30.21  10.35
H  12.28  27.35   5.40
H  32.87   1.25   5.41
H   6.29  21.15   2.51
H   9.84  17.57  20.13
H  11.90  18.10   2.96
H  11.49  25.78   1.83
H  16.22  23.34  25.14
H   2.18  18.80  14.04
H   8.73  21.34   0.54
H  27.17  19.30  31.54
H  26.08  12.01   2.42
H  11.27  25.24   9.55
H  23.03   9.56  20.61
H  27.37   3.83  28.45
H  14.16  23.19  25.01
H  16.11  21.63  25.54
H  33.37   2.39   3.77
H   4.73   8.19   5.30
H  20.82  13.74  25.25
H  18.73  20.43  16.13
H  17.48  27.53   5.00
H  12.33  25.83   0.90
H   3.66  17.68  14.73
H   0.55   8.68  31.43
H  27.69   9.46  15.11
H  11.80   5.71  21.66
H  19.74  13.73  23.79
H  21.15  32.55  19.47
H   7.62  32.68  31.06
H  25.05  26.42   5.49
H   6.60   5.59  11.47
H   8.86  25.55  28.51
H  23.11  22.75  20.63
H  30.02  25.27  25.47
  864
  Step: 50
H  30.60   6.85  28.71
H   6.60  24.39  11.57
H   9.31  22.64   2.87
H   6.32   5.70   2.61
H   0.29  11.73  15.99
H   9.29  24.43  13.48
H   2.78  25.28  19.49
H  22.35   9.97  24.89
H  23.07  12.87  26.78
H   3.13  18.78  14.53
H  15.18  10.65  14.16
H   2.02  31.38  23.10
H   0.29  19.99  15.61
H  14.72  32.46   0.33
H  21.69  13.44  26.40
H  25.25  32.01   9.96
H  18.32  12.50  25.91
H  13.91  11.82  16.22
H  13.79  26.11   6.24
H  26.50  31.33   2.32
H  20.36  18.49  28.23
H  30.00   9.43  13.71
H  29.49  11.95  26.93
H  27.38  23.94  17.60
H  16.78  29.13  22.31
H  10.13   5.28   3.72
H  16.78  32.63  30.95
H   8.78  16.69  23.24
H  16.13  27.70   4.98
H   5.54  22.60   1.17
H   4.95  12.47  28.95
H   2.06  18.56  15.33
H  10.68  19.04  22.07
H   8.52  17.55  20.26
H  28.30  10.12  14.68
H  11.05  18.00  21.63
H  10.59  23.96   0.01
H   1.08  20.11  13.73
H  16.61   0.46  32.62
H  19.27   4.33  18.75
H  10.55  15.40  15.93
H   7.03   5.80  28.02
H  23.74  25.06  12.14
H  11.66  26.71   1.16
H  12.91   5.26  25.83
H  18.23  22.38  25.36
H   3.64  24.64  11.12
H   7.40  17.71  20.76
H  32.93  22.02   2.76
H  16.79  22.84  26.28
H  33.15   6.37  17.05
H  28.14  15.73  30.02
H  16.26   5.97  27.42
H  11.09   5.46  19.71
H  24.51  20.25  19.41
H  10.50   2.86  32.30
H   2.07  29.43  18.56
H  33.32  31.55  31.23
H  32.41   0.94   6.89
H  31.34  23.41   4.66
H  24.99   2.73  28.19
H   1.73  19.71  14.85
H  21.56  22.03   3.80
H   7.35  30.80  31.59
H  13.72  10.42  17.67
H  30.71   4.40  17.79
H   9.56  27.27  15.25
H   5.76  25.36  11.59
H  15.69   8.94  17.67
H  11.48  27.16  32.68
H  18.05  25.20   0.31
H  30.70  22.44   0.68
H  31.31  32.19  26.35
H  27.11   1.84  27.75
H  17.35  15.00   1.03
H  25.09   3.52  29.04
H  20.76  13.76  26.78
H  23.58  32.94  24.94
H  26.10   3.51  28.42
H  26.54   7.71   8.48
H  28.77  16.45   8.41
H  15.25  13.60  24.31
H   3.83  17.93  18.84
H  32.34  19.47   7.45
H  15.93  24.76  26.53
H   6.66  22.38   0.83
H   8.52  28.66  22.42
H  17.13   8.52  12.24
H  16.28  11.57  16.32
H  11.58  24.94   1.00
H  15.35   4.43  29.05
H  14.20  32.79  27.04
H   5.96   0.61  18.79
H  17.90  28.98   6.91
H   5.32  20.71   2.43
H  11.90  25.37  32.29
H   1.64   1.85  16.66
H   2.32  18.63  16.42
H   9.00  18.08  21.91
H  30.25  16.58  12.08
H  33.17  23.06   1.04
H  26.84   2.89  29.17
H   4.38  25.22  21.14
H   0.86   7.39  21.86
H   9.29  12.32  14.13
H  31.81   3.26   5.27
H  32.21  15.90  26.46
H  30.23  12.48  26.38
H   5.52  22.44  12.16
H  15.51  12.20  18.18
H  16.04  21.52  27.78
H  12.99  25.68  31.52
H  32.60   2.18   4.50
H  30.86  12.52  29.47
H  11.07  26.29  32.06
H   9.03   2.56  31.89
H   4.02  13.70  30.81
H  18.56  26.08   6.32
H   2.83  25.02  10.14
H  33.25  19.57  17.08
H   3.79  24.41  12.18
H  31.13   8.73   0.33
H   0.70  18.46  18.48
H  16.38  23.67  26.95
H  31.09   0.81  23.25
H  25.14   9.35  24.88
H  29.53  27.76  28.10
H   9.38  17.50  21.12
H  15.99  12.72  16.93
H  19.62  32.31  19.76
H  15.88   0.48   6.67
H  14.98  11.37  18.78
H  14.83  22.73  26.25
H   8.66  26.70  16.05
H   5.11  24.28   9.74
H  18.90  13.35  11.73
H   5.62  13.40  29.60
H  26.16  21.77  19.17
H  28.50  31.44   8.65
H  18.32  23.45  29.77
H   2.62  12.88  17.55
H  11.00  31.51   9.34
H  24.39  20.09   4.67
H  12.45  24.14   9.25
H  32.36   0.22   5.70
H  22.06   5.27   6.97
H   7.75   4.42  15.25
H  27.06   6.02  16.62
H   2.05  17.95  13.37
H   9.67   7.67  14.16
H   2.97  17.76  15.61
H  10.99  18.88  21.06
H  25.80   1.79  29.69
H  16.12  24.30  27.81
H   6.35   5.37  22.56
H  17.67  28.56   5.69
H  26.77   1.86  28.75
H  14.57  20.90  25.67
H  14.56  22.22  30.66
H  31.81  20.62   4.61
H   5.41  13.74  30.65
H  29.85  11.54  27.94
H   1.72  13.21  15.81
H  20.12  14.18  18.08
H  23.32   9.59  33.40
H  19.07  29.51  11.11
H   0.90  32.31   5.97
H  25.22  32.71  29.02
H  12.38  25.40  33.34
H  28.81  20.42  31.00
H  13.75  25.34  33.27
H  18.75   8.97  15.97
H  32.66   2.43   7.84
H  10.37  17.03  20.79
H   7.11  22.29  33.28
H  25.90  19.48  27.86
H   1.48  30.28  19.13
H  28.55  31.38  15.50
H   5.06  15.53  31.88
H  12.56  12.58   4.61
H  15.45  10.07  16.83
H  30.90  12.23  12.00
H  29.14   5.71  10.30
H   3.59  19.84  14.70
H   2.38  10.01  20.64
H  16.52  28.90  27.11
H  21.43  31.40   6.02
H  15.46   6.32   7.51
H  18.21  28.98   3.64
H   2.26   9.47  10.64
H  21.16  28.65  31.34
H  23.70  17.63  11.67
H  32.44  20.16   3.42
H  13.07  24.47   0.35
H   0.62  31.82  11.13
H  17.74  30.14   7.24
H  12.53   2.19  12.58
H  17.91  27.77   6.42
H  25.95  17.02  17.13
H  15.32  21.58  26.46
H   7.27   0.88  19.28
H  21.65  11.55  27.71
H  16.32  31.95   7.87
H  33.32   4.09   5.82
H  17.92   3.07  32.11
H   9.02  18.43  20.79
H  22.00  29.96   1.60
H   6.67  20.12   1.52
H  11.76  23.14   0.42
H  14.63   9.86  15.80
H   5.44  14.07  32.58
H   4.65   3.27  29.00
H  25.11  22.11   6.18
H  22.40  12.64  28.95
H  19.29  31.69  16.85
H  32.66   3.39   4.18
H  18.99  32.28   3.19
H  14.04  11.55  33.19
H   4.20  25.04  18.58
H   9.88  18.42  21.53
H  21.78  13.86  27.41
H  24.95   7.76  25.65
H  29.23   0.49   8.01
H  25.98  11.59  16.51
H  11.37  12.87   4.78
H  10.11  17.32  21.76
H   6.63  20.84   0.62
H  20.66  12.92  26.10
H  32.02   4.00   6.28
H  23.85  12.28  26.25
H  11.37   0.51   2.58
H   3.29  17.64  13.66
H  30.22   8.98  12.66
H   0.19  10.19  30.81
H  11.87  29.75  32.60
H  27.19   0.52  29.36
H  28.23  33.26  29.61
H  10.64   4.29   6.17
H   3.40  26.47  24.62
H   6.88  13.55   0.42
H  18.27  27.02   4.21
H   3.25  22.82  10.04
H  27.99   2.52  27.96
H  10.62  17.99  22.77
H  32.78  20.45  17.51
H  10.45   4.54   9.99
H  18.32  22.09   2.49
H  28.67  19.44  26.55
H  17.06  31.76  15.30
H  21.42   8.58   0.17
H  27.84   3.93  15.06
H   5.06  30.38  15.35
H  32.75  20.51  10.54
H  31.26   2.52   6.19
H  23.46   2.76   8.44
H   1.92  13.16   6.61
H   1.72   3.45  29.18
H  15.66   7.74  20.58
H  10.90  25.88   0.88
H  24.95   3.80   4.95
H   8.06  18.61  21.80
H   7.38  33.41  27.63
H  21.92  12.30  14.42
H  19.78  12.28  25.94
H  17.04  14.77  13.36
H   4.55   6.26  18.20
H  24.79  14.19   3.43
H   4.41  29.48  15.18
H  32.94   3.23   6.96
H  19.92  28.51  26.55
H  17.86  12.05  24.03
H   5.09  23.43  11.91
H  12.47  17.27  23.16
H   9.92  18.73  20.38
H  16.37  22.96  27.72
H   3.81   6.90  18.67
H  30.28  21.61  24.19
H   3.76  14.24  32.63
H  16.22   9.85  17.99
H  30.49  12.56  15.98
H  30.83   9.16  14.66
H  29.57   8.48  13.75
H  33.43  15.09  26.50
H  18.80  26.24  13.27
H  31.13  29.43  23.83
H   7.62  22.22   1.40
H  16.57  29.90   3.99
H  18.13  29.76   5.13
H  16.99  29.48   6.09
H  29.26   9.18  13.08
H  13.95  25.22  31.98
H   6.43  13.61  32.26
H  33.20  21.72   0.47
H  15.34  27.25  22.59
H  27.79   1.15  14.07
H  24.19  18.08  30.00
H  23.03  20.52  18.78
H  16.46  21.98  26.85
H  15.82  19.33  30.12
H  15.62  10.89  18.06
H   9.53  17.60  22.81
H  28.82  11.19  13.50
H   2.45  20.51  14.87
H  29.75   9.97  12.23
H  21.42  12.14  26.30
H  22.01  20.17  18.54
H  14.06  31.92  27.76
H  10.98  19.24   7.84
H   3.82   6.93  17.44
H   7.61  20.76   1.23
H  15.14  21.30  28.40
H  26.51  23.29   5.08
H  30.86   1.72  22.49
H   0.04  28.22   8.57
H  12.65  23.38   3.30
H   4.17   8.48   0.64
H  23.43  14.52   3.53
H   8.51  21.31   1.82
H  10.34  20.89   2.82
H  31.98   8.13  19.86
H   4.72  13.08  30.22
H  11.02  18.17  20.32
H   6.29  22.12   1.72
H  17.48  29.19   4.50
H   0.88  17.10  15.43
H  15.04  20.67  27.22
H   6.59  16.62  29.50
H   8.11  18.65  30.80
H  14.25  11.52   1.12
H  30.39  20.81  15.63
H   6.56  20.55   4.38
H  14.80  15.12  16.45
H  20.63  33.35  10.03
H  12.65  26.70  33.42
H   1.20   1.56   7.37
H  15.60  22.00  29.74
H   0.12  22.03   1.70
H  17.17  21.50  27.82
H  33.36  21.63   3.72
H  26.09   2.29  27.49
H  31.71  19.91   0.33
H   0.04   1.08   6.35
H  31.42  11.86  27.03
H   7.43  22.41  12.22
H   2.11  20.78  13.84
H  15.72  18.46  16.06
H  20.94  14.91  22.93
H   4.36  12.11  19.56
H   8.05  11.73   4.83
H  22.74  12.59  25.74
H   6.45   9.82  33.06
H  31.03   9.67  13.24
H   4.16  10.48  23.23
H  29.43   5.82  28.01
H  20.28  26.97  33.14
H   6.52  15.50  29.03
H   6.82  25.81  10.74
H   7.54  19.16   1.01
H  19.16  29.39   5.45
H  25.97  23.17   5.97
H  22.76  26.15  29.21
H  24.73   1.56  29.94
H   4.70  14.63  14.33
H   2.68  19.49  15.21
H   2.76  25.01  11.92
H  22.19  13.11   8.72
H  13.97  14.06   1.71
H  12.94  24.97   4.67
H  32.12   2.06   5.60
H  22.95  13.82  28.44
H  26.89   2.85  28.16
H  29.84  12.45  29.92
H  20.37  29.37  27.11
H  20.22   5.60  24.50
H   6.98  14.10  18.09
H  10.02  10.56   4.38
H  17.82   7.60   1.07
H  15.45  14.45  13.71
H   5.87   5.93  21.51
H  21.84  18.67  22.82
H  17.35  24.67   5.92
H   3.76  24.03  20.49
H  14.46   9.53  17.81
H  20.28   7.16  18.41
H   3.72  16.80   7.31
H   8.37  17.53  21.34
H  14.44  12.34  17.45
H   1.88  17.56  15.87
H  21.32  12.76  27.08
H  31.85   5.15  19.85
H  24.93  11.57   9.51
H  10.92  32.23   2.54
H  29.57  23.04   0.81
H   0.09   3.85   4.65
H   1.81  26.45  19.57
H   9.81  16.40  23.00
H  24.41   9.42  23.69
H   1.07  18.67  28.36
H  17.97  23.28  26.47
H  30.98  14.60   5.06
H  13.19  26.20  32.47
H  16.07  28.92   6.41
H  16.16  10.75  17.03
H   0.39  18.93  32.12
H   9.59   2.89  33.09
H   5.21  14.50  29.48
H  27.52  26.35  11.67
H  13.90  13.70  30.76
H   3.70  24.61  19.47
H  17.77  30.18   3.69
H  23.49  27.12   2.84
H  25.96   1.27  30.60
H  20.25  19.73  30.41
H   8.30  16.20  21.51
H  13.75   2.47  12.55
H  32.64  21.94  12.35
H   6.15  14.88  30.22
H   5.51  12.73  19.24
H  27.56  20.30  25.93
H  29.90   2.41  20.29
H  29.29  25.09   1.99
H  26.31  27.16   3.47
H  27.43  12.75   1.16
H  23.66  14.07  27.55
H   8.33   3.92   6.45
H   0.22   1.91   5.03
H  27.89  10.18  13.44
H  28.42   8.44  13.04
H   3.19  27.39   0.34
H  17.62  27.91   3.91
H  11.70  10.55   4.21
H   9.44  17.49  19.12
H  20.45   8.15  18.81
H  16.66  28.62   5.35
H  10.50   0.87   8.62
H  27.22   8.03  12.62
H  11.66  24.23   0.17
H   3.07  23.76  10.78
H  25.90   2.60  28.85
H  18.32  29.55   6.14
H  21.41   8.96  23.47
H  27.12   1.50  31.66
H   2.57  30.89  19.68
H  29.16  23.93  22.68
H  18.71   5.68  23.25
H  10.87  14.72  16.70
H  12.03  18.56  31.41
H  31.63  12.37  26.00
H  32.88  21.18   1.75
H   8.50  20.23   1.08
H  31.68  19.48  25.16
H  18.04  11.79  23.00
H   5.84  20.82   1.46
H  33.01   1.19   7.72
H  17.05  10.47  23.06
H  15.72  12.23   3.66
H   7.78   3.39   3.27
H  10.47  15.86  21.76
H  16.37  11.78  17.80
H   2.60   6.85  19.00
H   4.75  10.33  22.39
H  20.31  19.09  29.15
H   5.71  26.27  32.62
H  27.38   5.69  11.91
H  23.08  11.04  12.76
H  29.93  10.32  14.48
H   4.10  15.22  32.32
H  12.08  30.56  10.92
H  16.56  10.28  16.10
H  27.08   2.96  27.16
H  13.39  12.11  17.21
H  21.83  19.75   8.60
H  25.53   3.46  30.90
H   5.64  24.13  10.97
H  26.27  14.45   3.35
H  17.53  22.34  27.02
H  10.98  27.07   0.14
H   5.86  22.75   2.51
H  16.02  12.83  18.84
H  27.28   9.26  13.78
H  13.10  10.30   4.99
H  29.36   8.71  12.11
H   4.57  21.06  25.23
H   2.45  31.75  25.32
H  12.07  33.40  14.97
H  18.05  26.83   5.69
H  27.91  11.24  14.71
H  23.69  12.65  27.74
H  28.20   1.52  23.71
H  10.93   2.04  11.71
H   5.39  12.92  32.50
H   0.45  30.97  22.80
H  32.33   8.58  31.97
H   2.47  17.79  14.58
H  25.02   2.68  29.60
H  30.64  11.41  26.54
H   2.22  24.40  11.20
H  22.81  11.98  28.00
H   5.02  16.04  15.32
H  18.93   5.84  28.87
H  11.33  16.03  26.96
H  15.59   9.26  16.07
H   5.67   6.39   8.49
H   7.30  23.20   0.84
H  14.74  12.39  25.32
H   3.81  16.67  14.26
H  26.89  19.88   5.57
H  31.07  21.92   1.96
H   9.16   2.88  16.84
H  16.80  29.91   5.17
H  11.32   3.88  29.57
H  25.72   1.41   6.16
H   8.25  17.29  31.21
H   0.12   2.60   2.80
H  26.64  18.88  26.46
H  27.18   6.76  32.38
H  24.71   1.95  28.81
H   6.11  23.08   0.12
H  33.24   2.28   6.02
H  27.68   1.36  28.64
H  15.58  28.25   5.71
H  27.74   2.75  15.14
H  25.39  14.42  22.44
H  26.01   3.35  29.92
H   1.72  15.22  28.45
H  29.49  10.88  16.80
H  16.32  12.47  23.91
H   7.80  32.37   7.64
H  32.20  10.48  24.37
H  14.11  31.27  11.73
H   7.48  19.20  12.34
H   0.80   1.92   6.11
H  16.99  28.50   6.65
H  21.53  32.80  28.73
H  26.87   2.71  14.47
H   7.70  21.60   0.43
H   8.14  25.05  27.68
H  13.83  18.69  19.04
H  12.66   6.70  10.59
H   4.45  31.46  15.64
H   3.96   3.43   6.30
H  13.34   2.55   5.94
H  28.23   1.43  29.59
H  12.90  25.11  32.48
H   2.90  19.66  13.91
H  14.00  11.50  17.97
H   7.87  30.59  10.69
H  16.81   9.18   5.62
H  15.17   7.78  17.52
H  25.43   2.48  30.49
H  31.25  10.09  19.95
H   4.85  13.19  31.47
H  17.77  22.30  12.25
H  30.68  20.26  24.18
H  21.31   5.03   9.94
H   4.10  25.46  10.50
H  17.86  10.52  23.71
H  10.78  32.71   1.42
H   6.76  23.02  13.05
H   5.74  12.36  20.22
H  15.64  23.87  26.08
H  18.79  27.12   6.48
H  14.28  11.04  16.90
H  30.54  31.17   9.34
H  12.12  33.26   3.08
H  18.75  28.27   6.10
H  15.09  22.11  27.51
H  19.24  25.93   1.94
H  28.38  26.20   9.01
H  14.29  30.42   1.32
H   7.59  20.90  33.01
H  15.12  12.50   0.45
H   0.33   3.19   6.31
H  31.82  24.41   3.80
H   4.68   0.49   6.97
H  25.92  13.10  26.96
H  12.29  24.38  32.89
H  18.35  28.64   4.72
H   0.81  30.70  10.65
H  25.57  19.91  10.71
H   6.10  14.12  31.45
H  15.10   6.23  14.58
H  30.88   8.65  13.58
H  15.27  11.56  17.23
H  31.75  17.31  23.03
H   7.22  21.34   2.08
H  26.29   6.63  11.52
H   1.06   4.11   5.61
H   5.41   5.71  11.69
H  22.82  14.74  27.43
H  12.06   4.80   0.77
H  30.58  24.45  23.32
H  17.53  25.55  24.78
H   8.16  20.30   2.11
H  19.49  12.99   2.74
H  31.67   9.87  11.92
H  12.12  23.99   1.52
H   1.59  17.18  17.06
H  10.78   8.66   4.50
H  30.77  10.67  12.16
H  10.82  17.51  19.53
H   4.54  28.06  18.14
H  30.61  28.15  27.72
H   5.70  15.72  29.62
H   6.29  15.92  25.36
H   3.94  24.57   9.96
H   6.41  30.95   3.88
H  23.48  12.68  28.82
H   9.83  18.82  22.66
H  12.02  17.51  24.50
H   2.59  31.51  22.10
H  13.56   9.02  20.83
H  29.89  12.43  28.86
H   2.91  24.15   9.47
H   0.89  11.95  30.80
H  20.06   4.56  24.43
H  10.28  25.49  32.23
H  15.92  28.42  13.28
H  12.89   6.72  20.28
H  22.28  12.22  26.95
H   1.45   2.21  15.58
H  18.37   3.38  18.68
H   3.50  17.33  16.63
H  20.88   7.26  19.32
H  15.45  20.39  26.19
H  12.14  26.25  32.68
H  31.32  28.02   8.22
H   4.79   2.92  10.06
H  16.83   9.40  11.09
H   8.81  16.53  20.55
H  15.57   8.30  30.54
H  19.91   5.43  26.37
H   5.95   6.59   1.64
H   6.98  18.62   0.16
H   4.62  24.82  11.58
H   6.29   2.12   1.03
H  29.98  30.01  14.93
H  30.48  12.28  27.51
H  28.82  12.07   3.98
H  26.37   4.73  12.89
H   3.30  18.87  13.32
H  21.96  13.69  28.49
H  17.43  30.63   5.85
H  31.81   3.14   6.89
H  14.50  21.95  25.55
H   5.19  14.92  30.99
H  17.47  29.43  12.69
H  28.82  11.33  28.24
H  22.57  24.26   2.11
H  30.69  26.52  27.77
H  33.01   6.52  14.62
H   6.42  21.97  12.58
H  29.05   9.98  13.81
H  10.83  11.91  27.83
H  14.60   9.16  16.64
H  31.06   4.15  25.14
H  11.71  23.32  32.91
H   8.78   1.57  18.72
H   5.72  12.54  30.46
H  17.65  26.38  30.21
H  33.50   6.08  24.34
H  25.61   1.56  28.28
H  19.87  13.13   6.65
H  28.01   9.35  12.73
H   3.98  14.67  30.60
H  20.59  28.78   4.66
H   0.96   7.87  25.93
H  14.41  10.50  33.32
H  32.45   2.07   6.62
H  26.72   0.85  27.99
H  23.26  31.98  15.01
H  26.19  12.14  23.55
H   8.07   2.25  18.22
H  14.41  27.55   0.30
H  27.39   1.23   6.60
H  22.27   8.92  31.15
H  13.73  21.23  26.23
H  27.23  24.76  29.82
H  22.04   7.50   4.00
H   3.01  18.93   3.72
H  33.35   2.73  20.57
H   4.25  23.70  10.55
H  30.84   4.50  19.31
H  26.91  28.21   0.68
H  15.41  10.95  16.07
H  31.46  12.84  30.39
H  31.69   7.89  13.49
H  12.12   2.98  13.40
H   7.29  19.78   0.06
H   2.84  12.83   5.99
H  11.22  25.01  33.07
H  23.24  11.78  27.02
H  11.95   2.85   2.80
H  23.64  29.80   1.13
H  27.03  27.36  17.85
H   9.78  16.13  20.89
H  15.82  11.53   1.86
H  22.63  24.71  11.75
H  32.80   0.39  14.21
H   1.49  17.58  14.48
H  28.67  12.59  29.82
H  15.70  22.72  26.83
H   9.33  16.54  21.90
H  19.83   6.03   9.67
H  28.06  25.02   6.21
H  30.77   7.35  13.66
H  27.18  13.04  33.42
H  31.22  29.52  15.80
H  25.50   4.85  32.78
H  15.68  29.34   5.09
H  26.58   2.32  30.96
H  22.55  12.96  27.85
H  24.95   5.18   8.82
H   9.52  14.82  30.81
H   6.20  14.42   0.96
H  13.36   8.77  17.20
H  28.36   9.17  13.98
H   6.65  23.13   1.64
H  17.81  20.04   5.01
H  32.60   3.15   6.04
H   3.61  25.45  20.26
H  27.13   1.85  29.69
H  15.22  11.09   0.31
H   8.72   1.69  17.26
H   0.97  18.28  15.21
H  31.18  29.95  14.48
H  12.98  18.14  25.52
H   4.52  21.96  26.28
H  10.25  29.84  21.96
H   0.98   3.09   5.09
H  23.72  27.47  23.18
H  15.29  23.74  27.17
H  15.24  22.95  25.17
H  26.58  20.12   2.82
H   8.84  31.56   2.35
H  29.83  10.00  15.48
H  12.04   0.02  19.27
H   3.08  16.75  15.03
H  19.10  14.26  23.27
H   5.13  15.12  32.89
H   3.09   5.11  11.94
H  22.96  21.99  24.63
H  16.88  11.49  23.71
H  23.95  13.46  26.29
H  16.75  24.12  26.04
H  14.66  10.62  18.04
H  20.55  13.29  27.84
H  32.75  22.02   4.41
H  20.73  21.18  17.27
H   9.22   3.50  32.21
H  21.52   4.59   5.06
H  27.59   2.75  30.17
H  11.70  26.20   0.15
H   7.47   1.14  18.12
H  24.52  30.16  23.39
H   3.35  18.77  15.69
H  19.27  16.74  21.29
H  16.83   7.86   0.31
H  32.12  11.45  17.86
H  22.10   0.55   7.57
H  24.84  21.15   6.72
H  13.68  17.30  25.98
H   2.21  16.69  14.27
H   6.97  22.63   2.54
H  33.24  22.02  13.74
H  15.43  10.86  32.78
H   0.22   2.10   7.14
H  21.31   7.89   3.22
H  10.33   6.81   3.00
H  17.22  23.57  27.64
H  31.77  31.70   9.39
H  33.20   2.84   5.22
H   2.62  24.98  20.56
H  18.04   6.79  30.90
H  29.11  18.75  31.35
H   2.25   7.29  17.86
H  32.10   3.59  30.27
H  16.15  20.77  27.03
H  27.69  29.95  13.65
H   7.07  18.13   1.56
H   7.06   7.50  19.79
H  19.15  12.68  24.80
H  10.02  26.63   0.28
H  16.58  32.69  20.35
H  22.10  26.87  28.83
H  32.78  18.58  30.53
H   4.87   7.42  17.66
H  10.06  16.47  19.87
H  23.60  31.47  15.99
H   1.11  18.59  14.11
H  26.98   1.11  30.61
H  10.92  23.85   1.06
H  15.99  11.87   0.20
H   4.57  14.38  31.78
H  15.18  11.84  32.69
H  29.53  20.34  27.61
H  26.17  26.46   0.83
H  10.69   3.85   7.20
H   5.17  25.12  10.50
H  13.17  11.12  16.58
H  10.41  23.15   4.91
H   6.28  23.33  11.98
H  24.07  10.60  13.40
H   7.82  29.71  32.77
H  10.49   5.38   6.19
H  26.92  20.42   3.79
H  15.69   8.76  12.97
H  18.94  29.05  18.01
H  10.79  26.07  33.21
H  29.36  11.77  17.82
H  29.20  18.12  16.50
H  12.12  24.20  18.30
H  21.59  10.09  30.34
H  14.81   2.58  31.94
H   6.13  13.10  31.27
H  30.33   3.89   5.35
H  16.84  27.51   5.85
H  10.43   4.25  33.03
H   5.59  24.40  11.97
H  28.45  12.38  28.54
H   2.15  18.93   3.16
H  18.49  27.67   5.16
H   9.27   2.34  17.85
H   9.05   4.76  19.42
H  22.64  13.87  26.86
H  10.32  19.80  21.46
H  29.39   9.45  14.68
H  13.66  21.29  24.97
H  28.69  29.48  32.54
H  19.47  29.30  18.89
H  14.77  28.07  16.74
H  32.87   1.25   5.41
H   6.29  21.15   2.51
H   9.84  17.57  20.13
H  24.39   3.14  30.35
H  11.49  25.78   1.83
H  16.22  23.34  25.14
H   2.18  18.80  14.04
H   8.73  21.34   0.54
H  14.19   8.25   3.31
H  30.89   7.78  12.44
H  20.57  25.39   2.85
H  14.85  14.16  25.17
H  32.13  17.69  24.04
H  29.53  26.63   7.15
H  16.11  21.63  25.54
H   5.27   8.03  24.64
H  31.92   8.93  14.09
H  32.31  21.57   3.50
H  30.77  19.72  25.62
H  17.48  27.53   5.00
H  12.33  25.83   0.90
H   3.66  17.68  14.73
H  18.94  11.60  31.10
H  27.69   9.46  15.11
H   9.61  29.94  26.17
H  16.78  22.66   3.11
H   7.77  21.81  32.56
H   2.28  19.89  13.01
H   5.68  13.16  28.57
H   4.24  15.68  31.20
H  20.30  29.37  10.88
H   4.15  19.13  14.01
H   7.74  11.76   9.57
  864
  Step: 60
H  30.60   6.85  28.71
H   6.60  24.39  11.57
H   9.31  22.64   2.87
H  24.97   5.39   5.44
H  26.29  23.90  29.82
H  31.67   2.12   7.32
H   0.44   5.17   6.61
H   1.06   3.62  17.27
H  23.07  12.87  26.78
H   3.13  18.78  14.53
H  29.33  13.31  30.19
H  29.37  13.31  25.46
H   0.29  19.99  15.61
H  21.46  30.24  13.73
H  21.69  13.44  26.40
H  10.43  28.31  14.51
H  13.64   9.22  13.04
H   0.28  10.53  22.79
H   7.54  28.86  23.70
H   0.64  18.08  31.24
H  32.85   2.59   2.15
H  30.00   9.43  13.71
H  29.49  11.95  26.93
H  26.00   1.87   4.79
H   2.35   3.65  18.79
H  32.49   7.59  17.01
H  27.89  12.53   5.71
H  19.53  13.09  25.28
H  16.13  27.70   4.98
H   5.54  22.60   1.17
H   5.00   1.99   2.04
H   2.06  18.56  15.33
H  10.68  19.04  22.07
H   8.52  17.55  20.26
H  28.30  10.12  14.68
H  11.05  18.00  21.63
H  10.59  23.96   0.01
H   0.18   5.83  18.55
H  29.08  24.34   0.99
H   5.60  21.57  12.96
H  29.22   7.25  14.07
H  26.08  30.00  16.97
H  14.22   7.64  13.92
H  11.66  26.71   1.16
H  19.55  17.80  32.05
H  16.45  11.38  18.81
H   3.64  24.64  11.12
H   2.44  28.27   5.80
H  28.92  30.62  31.81
H  16.79  22.84  26.28
H  15.29   8.59  17.69
H  28.14  15.73  30.02
H   9.39  21.96  10.10
H  11.09   5.46  19.71
H   6.77   0.66  31.19
H  25.21  20.61   8.60
H  31.39  20.93  32.48
H  27.06  10.65  15.29
H  18.68  31.46  16.78
H  14.58  23.49  17.35
H   3.68   4.47  28.36
H   1.73  19.71  14.85
H  24.78  25.61  31.99
H  30.46  11.51  29.63
H  13.72  10.42  17.67
H   8.91   8.71  21.99
H   9.56  27.27  15.25
H   5.76  25.36  11.59
H   0.97  18.77  20.30
H  11.48  27.16  32.68
H  23.96  21.62   6.90
H  17.57   8.71  31.30
H  11.64   3.92   5.92
H  27.11   1.84  27.75
H   8.41  15.56   4.05
H  25.09   3.52  29.04
H  20.76  13.76  26.78
H   6.45  27.27  32.96
H  26.10   3.51  28.42
H  12.29   6.64   2.71
H  25.13   6.56  16.52
H  15.25  13.60  24.31
H   7.85  29.02  21.78
H  20.42  24.58  20.52
H  15.93  24.76  26.53
H   6.66  22.38   0.83
H  29.26  25.95  18.22
H  17.13   8.52  12.24
H  16.28  11.57  16.32
H  11.58  24.94   1.00
H  25.71  18.21   5.86
H  31.30  18.77  13.44
H   9.02  15.39  21.11
H  17.90  28.98   6.91
H   5.32  20.71   2.43
H  11.90  25.37  32.29
H  22.70  13.70  25.84
H  15.31  14.68   8.50
H   9.00  18.08  21.91
H   1.88   6.97   0.38
H  20.82  24.41  33.30
H  26.84   2.89  29.17
H  22.72  22.14  32.05
H  26.52   1.30  31.65
H   6.68  24.80  12.56
H  31.81   3.26   5.27
H   0.20  28.64  20.46
H  30.23  12.48  26.38
H   5.52  22.44  12.16
H  15.51  12.20  18.18
H  16.04  21.52  27.78
H  12.99  25.68  31.52
H  32.60   2.18   4.50
H  30.86  12.52  29.47
H  11.07  26.29  32.06
H  24.22  19.30   8.88
H   4.02  13.70  30.81
H  18.20  12.76  17.95
H   2.83  25.02  10.14
H  33.25  19.57  17.08
H   3.79  24.41  12.18
H   4.26  24.30  28.49
H   1.17   1.27  18.45
H  16.38  23.67  26.95
H  25.54  21.90  21.78
H  21.94  20.33   4.97
H   7.17  11.98  27.19
H   9.38  17.50  21.12
H  17.93  14.17  23.61
H  13.34  21.92  13.35
H  15.38   9.29  18.48
H  31.13   8.21  15.09
H  14.83  22.73  26.25
H  30.85  13.60  29.66
H   5.11  24.28   9.74
H  26.58   0.24  31.37
H   5.62  13.40  29.60
H   9.97   5.01   6.78
H   3.25  27.38   9.93
H  14.95  30.72   2.94
H   6.87   6.52   8.91
H   0.05  14.69  29.33
H  28.27  13.61  29.95
H  26.70  32.06   0.09
H   1.68  33.41   9.90
H   6.10   1.04  29.66
H   9.81  24.23  15.50
H  31.44  17.71  12.88
H   2.05  17.95  13.37
H  11.83   2.32  10.23
H   2.97  17.76  15.61
H  23.73   1.80  13.48
H  25.80   1.79  29.69
H  16.12  24.30  27.81
H   6.35   5.37  22.56
H  17.67  28.56   5.69
H  26.77   1.86  28.75
H  17.14  22.30  28.00
H  31.17  17.98  11.94
H   9.60  31.15  26.25
H   5.41  13.74  30.65
H  29.85  11.54  27.94
H   3.59   7.59   5.67
H  28.45  31.60  24.21
H   3.28  25.68  11.01
H   9.22  11.74  30.52
H   9.70   8.84  33.30
H  25.22  32.71  29.02
H  12.38  25.40  33.34
H  28.81  20.42  31.00
H  13.75  25.34  33.27
H  28.80  30.31   8.93
H  32.66   2.43   7.84
H  10.37  17.03  20.79
H   7.11  22.29  33.28
H  11.61  18.01  33.14
H  14.95  11.45  18.63
H  11.23  23.81   3.04
H  25.65  20.74   9.62
H  18.81  17.46  28.34
H  15.45  10.07  16.83
H  10.97  16.22  20.90
H   4.23  14.95  30.27
H   3.59  19.84  14.70
H  25.18   6.27  15.48
H  32.29  23.14   5.06
H  21.43  31.40   6.02
H  15.80  11.13  23.55
H  18.21  28.98   3.64
H  17.04  28.90   3.36
H  17.24  10.72   0.68
H  12.91  21.10  14.99
H  30.38  12.00  17.67
H  13.07  24.47   0.35
H  18.20  22.34  30.16
H  17.74  30.14   7.24
H  12.54  14.43  12.03
H  17.91  27.77   6.42
H  22.99  14.80  26.07
H  15.32  21.58  26.46
H   4.80  22.48  11.26
H  30.28   1.43   8.42
H  24.96  30.43  17.41
H  33.32   4.09   5.82
H  27.77  30.90  22.46
H   9.02  18.43  20.79
H  31.37   7.91  16.62
H   6.67  20.12   1.52
H  11.76  23.14   0.42
H  14.63   9.86  15.80
H   5.44  14.07  32.58
H  11.17   4.27  21.91
H  32.09  13.14  19.37
H  22.40  12.64  28.95
H  14.83  23.07  27.98
H  13.46  19.63   5.55
H  33.14  23.52  10.32
H   9.15   5.95  19.36
H  18.49  31.81  24.74
H   9.88  18.42  21.53
H  21.78  13.86  27.41
H   6.86  20.94  21.55
H   1.57   2.32  17.51
H  22.35  25.76  19.50
H  10.13  10.83  21.02
H  10.11  17.32  21.76
H   6.63  20.84   0.62
H  20.66  12.92  26.10
H  32.02   4.00   6.28
H  23.85  12.28  26.25
H   0.42  31.17   5.16
H   3.29  17.64  13.66
H  30.22   8.98  12.66
H  14.14  13.05  23.94
H  29.39  12.47  27.85
H  21.53   5.68  11.56
H   1.42  10.24  10.67
H   4.41  26.04  29.93
H   3.34  25.13  16.28
H   9.46   1.67  15.42
H   2.21  21.75   9.88
H   2.37  15.12  19.96
H  27.99   2.52  27.96
H  10.62  17.99  22.77
H  14.78   5.92  13.21
H   1.14   1.02   5.60
H  14.55  28.46   4.25
H   7.33   7.22  15.83
H  18.90  11.00  11.61
H   7.06  23.81  12.41
H  31.00  12.56  16.86
H   5.06  30.38  15.35
H  32.75  20.51  10.54
H  31.26   2.52   6.19
H  30.05  10.64  13.08
H   8.94  11.43  21.29
H   4.98   0.75  19.68
H  11.65   5.16  23.18
H  10.90  25.88   0.88
H   0.59   2.04  24.79
H  18.40  10.62  33.34
H   8.99  10.74  17.40
H  28.33  19.54  11.96
H   1.50   3.36  18.19
H  14.75  13.06  16.60
H  15.00  26.30  19.75
H  18.59  23.09  30.76
H   8.60  28.54  20.62
H  32.94   3.23   6.96
H  16.16  20.92  20.78
H  24.92  17.28   5.57
H   5.09  23.43  11.91
H   6.21  20.28  30.72
H   9.92  18.73  20.38
H  16.37  22.96  27.72
H   3.34  29.95  11.26
H  30.28  21.61  24.19
H   3.76  14.24  32.63
H  16.22   9.85  17.99
H  31.61  29.70  24.72
H  30.83   9.16  14.66
H  29.57   8.48  13.75
H  19.74  29.81  25.98
H  18.80  26.24  13.27
H  31.13  29.43  23.83
H   7.62  22.22   1.40
H  16.57  29.90   3.99
H  18.13  29.76   5.13
H  16.99  29.48   6.09
H  29.26   9.18  13.08
H  13.95  25.22  31.98
H   6.43  13.61  32.26
H  25.12  33.49  14.38
H  31.00  10.44  29.60
H   2.38   3.81  17.29
H  12.23   9.65  10.92
H  16.84   4.32  20.11
H  16.46  21.98  26.85
H   5.98  18.11  14.76
H  15.62  10.89  18.06
H   9.53  17.60  22.81
H  28.82  11.19  13.50
H   2.45  20.51  14.87
H  29.75   9.97  12.23
H  21.42  12.14  26.30
H   4.52  13.61  29.14
H  31.56  21.45  10.33
H  25.42   7.47  13.30
H   3.11  16.37   3.01
H   7.61  20.76   1.23
H  15.14  21.30  28.40
H  21.85  16.20  33.02
H   7.98   5.29  20.39
H   7.61   4.53  12.12
H   2.57  12.48  30.39
H  18.95   1.91  18.28
H  31.69   7.76  27.78
H   8.51  21.31   1.82
H  13.14  22.91  27.66
H  12.79   2.73  24.74
H   4.72  13.08  30.22
H  11.02  18.17  20.32
H   6.29  22.12   1.72
H  17.48  29.19   4.50
H   0.88  17.10  15.43
H  15.04  20.67  27.22
H   6.59  16.62  29.50
H  33.02  22.16   5.25
H   7.11  19.35   8.31
H  16.68  14.61   0.26
H   6.56  20.55   4.38
H  30.41   4.16  13.37
H  32.17   6.50  16.24
H  12.65  26.70  33.42
H   1.20   1.56   7.37
H  13.07   1.67  22.36
H   2.76  20.54  28.27
H   3.62  33.38  14.61
H  33.36  21.63   3.72
H  26.09   2.29  27.49
H   1.64  16.60  16.10
H   0.04   1.08   6.35
H  18.69  18.09   0.13
H  22.56  15.09  33.33
H   2.11  20.78  13.84
H   7.74  16.66  20.66
H  15.60  15.11   0.26
H  23.58  31.55  18.45
H  11.51  28.11  31.29
H  22.74  12.59  25.74
H  27.18  27.34  11.10
H  31.03   9.67  13.24
H   1.35  30.90  11.53
H  31.17  10.53  28.45
H  22.70  30.21  13.28
H  11.08   4.23   1.47
H  30.68  28.50  24.25
H  19.89  16.98  32.93
H  19.16  29.39   5.45
H   2.37  14.64  32.50
H  10.14  28.23  15.53
H  24.73   1.56  29.94
H  15.73   8.36  18.62
H   2.68  19.49  15.21
H   2.76  25.01  11.92
H  25.50   0.20  30.61
H  31.83   4.79   5.56
H  14.89  12.74  24.72
H  32.12   2.06   5.60
H  22.95  13.82  28.44
H  26.89   2.85  28.16
H  29.84  12.45  29.92
H  24.45  30.52  10.11
H   0.76   1.46  13.41
H   7.88  12.86   4.89
H  25.58  11.33  22.80
H  22.34   9.53  21.24
H  17.74  18.22  33.14
H  19.92  18.90  30.30
H  14.39   8.62  13.57
H   4.50  21.03   3.20
H  31.22  18.88  12.38
H  14.46   9.53  17.81
H  15.44  10.88  31.85
H  18.80  27.74   3.74
H   8.37  17.53  21.34
H  14.44  12.34  17.45
H   1.88  17.56  15.87
H  21.32  12.76  27.08
H  25.67   2.29   6.68
H   5.66  10.03  32.12
H  10.92  32.23   2.54
H  16.60  19.90  31.56
H   0.09   3.85   4.65
H   3.70  22.17  25.60
H   9.81  16.40  23.00
H  21.08  11.18  29.39
H  13.41  10.52  22.21
H  17.97  23.28  26.47
H  30.98  14.60   5.06
H  13.19  26.20  32.47
H  16.07  28.92   6.41
H  16.16  10.75  17.03
H  33.42  14.11  24.55
H  10.84  16.89  23.07
H   5.21  14.50  29.48
H  31.29  16.87  27.45
H  16.51  16.54  13.96
H  32.38  21.30   5.36
H  17.77  30.18   3.69
H  31.90   7.09  28.93
H  25.96   1.27  30.60
H  18.97  11.48  16.35
H   8.30  16.20  21.51
H   0.63   8.07  12.90
H  30.24   9.04  19.14
H  17.12  10.53   4.17
H  11.11  31.26  26.92
H   1.67  22.04  12.74
H  32.38  23.52   4.00
H  22.18   3.46  16.35
H  32.08   1.95   1.61
H   7.81  10.52  18.56
H  23.66  14.07  27.55
H  24.28   4.65  11.22
H   0.22   1.91   5.03
H  15.46  11.88  14.70
H  28.42   8.44  13.04
H   5.09  21.84   2.46
H  17.62  27.91   3.91
H   8.16  11.05  16.96
H  15.35  29.16  18.70
H  24.04  22.13   2.62
H  16.66  28.62   5.35
H  23.73  15.11   4.76
H  32.73  22.51   4.25
H  11.66  24.23   0.17
H   3.07  23.76  10.78
H  25.90   2.60  28.85
H  18.32  29.55   6.14
H   5.91  24.02  12.92
H   5.37  11.81  32.40
H   7.10  20.41   2.49
H  15.74   3.64  25.41
H  18.71   5.68  23.25
H  22.91  25.72  28.00
H  29.28  11.77  29.45
H   0.25  11.80  26.77
H  21.21  27.76  31.43
H   8.50  20.23   1.08
H  21.74  12.12  27.96
H   0.96  13.46  15.53
H   5.84  20.82   1.46
H  28.43   8.04  14.40
H  25.21  27.61  18.70
H  15.71  12.66  17.15
H  20.71   5.16  20.81
H  10.47  15.86  21.76
H  16.37  11.78  17.80
H  13.94  26.87  21.37
H   4.75  10.33  22.39
H  20.31  19.09  29.15
H  22.94  30.07   1.72
H  15.45  12.94  23.42
H  29.41   3.71  17.13
H  29.93  10.32  14.48
H   4.10  15.22  32.32
H   8.07  15.65  20.68
H   1.64  21.71   3.79
H  24.03  14.43  26.67
H  13.39  12.11  17.21
H  10.04  21.22   9.90
H  23.52  14.85  28.74
H   5.64  24.13  10.97
H  30.18  13.22  28.04
H  17.53  22.34  27.02
H  17.24  11.21  17.12
H   5.86  22.75   2.51
H  29.10  18.07  18.27
H  14.11   6.30  14.01
H  13.10  10.30   4.99
H  29.36   8.71  12.11
H   5.79  30.08  32.14
H  18.00  23.98  12.87
H  11.60   5.72  12.67
H  18.05  26.83   5.69
H   8.82  12.81  21.17
H  23.69  12.65  27.74
H   6.92  30.98  22.88
H  31.20   8.55  18.85
H   5.32  23.11  10.48
H   8.40   6.29  25.91
H   8.70   1.33  17.41
H   2.47  17.79  14.58
H  25.02   2.68  29.60
H  30.64  11.41  26.54
H  19.20  27.80   9.20
H  22.81  11.98  28.00
H   1.08   2.92   7.12
H  18.93   5.84  28.87
H  11.54  29.64  18.84
H  15.59   9.26  16.07
H  14.69  23.87  29.60
H   7.30  23.20   0.84
H   8.14   8.78  14.63
H   3.81  16.67  14.26
H  13.57  15.12  12.62
H  33.20  31.33  15.59
H  23.04  29.04   2.80
H  16.80  29.91   5.17
H  24.25  18.20   6.03
H  33.18   7.29  22.82
H  21.03  27.46  30.03
H  22.13   5.31   8.24
H   4.53  27.26   7.95
H  31.06  21.55  28.12
H  24.71   1.95  28.81
H   6.11  23.08   0.12
H  33.24   2.28   6.02
H  27.68   1.36  28.64
H  15.58  28.25   5.71
H   3.06  25.69  28.99
H   6.90  19.15   1.03
H  26.01   3.35  29.92
H   5.40   1.12   5.57
H  12.31   6.81  32.77
H   2.79  14.77  30.27
H   7.80  32.37   7.64
H  30.55  12.58   5.61
H  14.34  24.79  27.23
H   7.48  19.20  12.34
H   0.80   1.92   6.11
H  16.99  28.50   6.65
H  29.94  12.96  16.77
H   0.78  23.42   8.20
H   7.70  21.60   0.43
H  12.90  23.15  11.52
H   5.46  11.57  30.06
H  25.00   9.93  28.35
H  22.72  33.01  29.47
H   0.79   2.16   9.19
H  16.04  14.01  12.93
H  28.05   0.54  16.71
H  12.90  25.11  32.48
H   2.90  19.66  13.91
H  14.00  11.50  17.97
H   6.29  18.44  13.64
H  16.81   9.18   5.62
H  16.18  28.19  32.31
H  25.43   2.48  30.49
H  27.95   1.17  30.48
H   4.85  13.19  31.47
H  27.24  28.32   3.14
H  28.73   7.54  12.40
H  24.06   2.04   4.77
H   4.10  25.46  10.50
H   1.96  14.25  15.90
H  11.05  24.01  32.50
H   6.76  23.02  13.05
H  32.50  23.95  24.35
H  15.64  23.87  26.08
H  21.01  22.28  24.21
H  14.28  11.04  16.90
H  33.26  32.03   6.03
H  16.47  22.98  25.27
H  18.75  28.27   6.10
H  15.09  22.11  27.51
H   0.32  22.99   3.79
H  28.38  26.20   9.01
H  14.29  30.42   1.32
H   7.59  20.90  33.01
H   9.31  30.33   1.57
H   0.33   3.19   6.31
H  25.38   1.71  31.48
H   1.75   5.16  12.03
H   3.49  13.43  31.88
H  12.29  24.38  32.89
H  18.35  28.64   4.72
H   5.24  16.58  31.64
H   9.25  19.10  15.22
H   6.10  14.12  31.45
H  15.10   6.23  14.58
H  30.88   8.65  13.58
H  15.27  11.56  17.23
H  18.90  26.59   9.11
H   7.22  21.34   2.08
H  26.35  30.32  25.09
H  13.52   7.99  12.77
H  24.20  29.26  29.04
H  22.82  14.74  27.43
H   0.61  17.87  16.40
H  31.98  19.62  12.62
H  17.53  25.55  24.78
H   8.16  20.30   2.11
H  17.62  17.05  32.89
H  25.25  13.02  28.06
H  12.12  23.99   1.52
H   1.59  17.18  17.06
H   7.39   5.32  15.82
H  28.59  12.57  29.82
H  10.82  17.51  19.53
H  20.33  25.59   1.47
H  32.23  21.24   4.33
H   5.70  15.72  29.62
H  21.49  33.26  15.40
H   3.94  24.57   9.96
H   9.60  27.63  14.08
H  23.48  12.68  28.82
H  14.29  15.98  32.23
H  32.40  18.59   8.39
H  33.12  17.88  23.77
H  16.11   4.10   6.50
H  29.89  12.43  28.86
H   7.38   1.77   2.92
H   8.64   2.84   3.09
H   6.01  21.64   0.23
H  10.28  25.49  32.23
H  15.92  28.42  13.28
H  12.89   6.72  20.28
H  22.28  12.22  26.95
H  27.06  23.45  29.16
H  17.79   9.07  17.23
H  18.20  22.92  12.99
H  12.37   2.94  32.33
H  19.51   9.64   1.52
H  12.14  26.25  32.68
H   5.82   2.13   6.26
H   2.19   8.13   0.10
H  25.51  12.23   8.99
H   8.81  16.53  20.55
H   3.09  14.52  31.32
H   4.41   0.60  15.37
H  30.33  11.58  16.67
H  13.19  20.87  13.96
H   4.62  24.82  11.58
H   1.77  19.65  15.87
H   1.13  14.04   2.82
H  30.48  12.28  27.51
H  19.54  30.44  13.35
H  30.45   9.91  15.43
H   3.30  18.87  13.32
H  21.96  13.69  28.49
H  17.43  30.63   5.85
H  31.81   3.14   6.89
H   1.97   1.74   5.71
H   5.19  14.92  30.99
H  31.72  11.38  11.70
H  30.42  21.00   1.80
H  26.83   6.98  22.86
H  11.51  16.25  27.17
H  15.70  27.43  30.79
H   3.30   5.31  29.06
H  29.05   9.98  13.81
H  30.47  13.61  26.64
H  14.60   9.16  16.64
H  15.13  24.30  22.85
H  11.71  23.32  32.91
H  31.66  12.74  31.86
H   5.72  12.54  30.46
H  32.26   2.07  29.21
H  29.30  11.94  16.95
H  25.61   1.56  28.28
H   3.06  31.45  23.36
H  28.01   9.35  12.73
H   5.43  20.68  24.15
H  19.04   9.88   0.46
H   5.72  16.04  30.81
H  29.73   7.43  13.08
H  32.45   2.07   6.62
H  26.72   0.85  27.99
H   1.66   2.61   6.19
H   4.57  25.73  22.42
H   8.07   2.25  18.22
H   3.94  28.43  14.29
H  29.59  13.56  29.11
H  12.06   5.72  32.04
H  18.54  32.49  32.89
H  17.38  23.84   2.16
H  14.66  25.36   6.30
H  17.90  10.33   8.38
H  10.28   6.34   1.60
H   4.25  23.70  10.55
H  27.89   2.32  14.18
H   1.30  24.53   9.53
H  15.41  10.95  16.07
H  31.46  12.84  30.39
H  27.47  14.08  32.97
H  27.72   7.00  17.28
H   7.29  19.78   0.06
H   2.84  12.83   5.99
H  11.22  25.01  33.07
H  23.24  11.78  27.02
H  21.33  19.47   2.56
H   4.63   0.11  30.03
H  28.79   0.42   3.97
H   9.78  16.13  20.89
H   1.20  10.10  30.49
H  22.63  24.71  11.75
H  27.43  22.25   5.79
H   1.49  17.58  14.48
H   3.22  30.03   9.37
H  15.70  22.72  26.83
H   9.33  16.54  21.90
H  19.83   6.03   9.67
H   3.02   8.77   3.82
H  30.77   7.35  13.66
H  30.14   0.83  11.05
H  22.77  14.06   2.04
H   6.01  15.43  31.51
H  15.68  29.34   5.09
H  26.58   2.32  30.96
H  22.55  12.96  27.85
H  29.67  11.80  25.70
H   3.78  22.88   9.19
H  10.51  10.20   9.29
H  26.36   5.51   2.47
H  28.36   9.17  13.98
H   6.65  23.13   1.64
H   9.11  32.58   2.69
H  32.60   3.15   6.04
H   2.89  15.54  32.27
H  27.13   1.85  29.69
H  32.56  20.94   2.82
H  10.56   2.22   2.54
H   0.97  18.28  15.21
H  23.60  23.56   9.69
H  32.47   3.44   4.47
H   4.52  21.96  26.28
H   2.44   1.57   7.99
H  11.86   7.73   3.89
H  12.44   7.73   9.92
H  15.29  23.74  27.17
H  15.24  22.95  25.17
H  32.83   7.43  19.98
H   8.84  31.56   2.35
H  30.05  18.36  12.16
H  33.39   3.11  15.64
H   3.08  16.75  15.03
H  19.10  14.26  23.27
H   7.58  15.08  10.02
H   5.60   6.98  24.80
H  21.22  10.28  31.42
H  16.88  11.49  23.71
H  23.95  13.46  26.29
H  16.75  24.12  26.04
H   4.18  18.62  11.75
H  20.55  13.29  27.84
H  12.14   4.29  20.86
H  32.26   7.31  27.02
H  31.45   9.61  23.38
H  27.81   8.75   2.67
H   3.04  24.13  29.33
H  11.70  26.20   0.15
H   7.47   1.14  18.12
H  22.75   5.92  25.05
H   3.35  18.77  15.69
H  15.83  10.41   6.03
H  10.81   0.58  14.40
H  20.57   5.19  18.84
H  32.77  30.71  23.36
H  26.25  20.34  21.54
H   8.97   2.35   9.59
H   2.21  16.69  14.27
H   6.97  22.63   2.54
H   1.22   2.48  10.34
H   0.70  18.45  27.19
H   0.22   2.10   7.14
H   4.71  21.89   0.61
H  26.52   1.61  14.24
H  17.22  23.57  27.64
H   2.34  11.49  32.11
H  33.20   2.84   5.22
H  31.47  10.03   8.98
H  16.92  22.01   1.34
H  22.19   0.36  22.38
H  12.36  16.85  15.93
H   0.39  28.92   6.69
H  16.15  20.77  27.03
H   1.38  11.03  21.70
H   4.03  23.28  11.61
H  24.00  27.82  14.35
H  29.32  22.41   6.09
H   9.05  28.69  15.60
H   4.48  14.42  20.27
H  19.13   1.02  30.21
H   7.45  18.17  33.43
H  17.88   4.06   4.91
H  10.06  16.47  19.87
H  16.86  29.50   7.20
H   1.11  18.59  14.11
H  26.98   1.11  30.61
H  10.92  23.85   1.06
H  32.50  19.27  29.67
H   4.57  14.38  31.78
H   1.00  32.45  26.25
H  13.53   9.59  18.39
H   0.88   2.68  20.45
H  25.08  24.74  30.15
H   5.17  25.12  10.50
H  32.47  32.16   0.72
H  10.41  23.15   4.91
H   6.28  23.33  11.98
H  32.82   3.17  22.62
H  11.03   0.70  32.33
H  27.13  11.72  12.46
H  24.16   2.99  28.95
H  15.69   8.76  12.97
H   8.46   7.99   1.59
H  10.79  26.07  33.21
H  21.10  14.78  16.40
H  26.92  20.85  33.42
H  10.52   5.16  23.53
H   3.54   7.92  17.54
H  19.49  25.38   7.35
H   6.13  13.10  31.27
H  30.33   3.89   5.35
H  16.84  27.51   5.85
H   2.69   0.97  11.19
H   5.59  24.40  11.97
H   8.61  11.83  17.63
H  18.42  22.30  12.08
H  18.49  27.67   5.16
H   9.27   2.34  17.85
H  26.68   6.10  15.17
H  22.64  13.87  26.86
H  32.24  28.30  27.89
H  29.39   9.45  14.68
H  14.95  11.99  16.28
H  13.91  12.20  16.15
H  14.58   3.20  16.02
H  20.83  31.45  25.53
H  32.87   1.25   5.41
H   6.29  21.15   2.51
H   9.84  17.57  20.13
H  24.39   3.14  30.35
H  11.49  25.78   1.83
H  27.41  21.45  30.11
H   2.18  18.80  14.04
H  23.70  12.85  25.14
H   9.07  26.88  30.43
H  28.70   6.34  17.77
H  24.68   7.81  14.41
H   4.17   8.22  26.41
H  20.61  30.15   9.80
H  31.52   8.77  12.74
H  16.11  21.63  25.54
H  30.57  10.82  27.52
H  31.92   8.93  14.09
H  26.25  17.35  26.06
H   2.90  31.79   7.27
H  17.48  27.53   5.00
H  12.33  25.83   0.90
H   3.66  17.68  14.73
H   6.65  12.73  29.71
H  26.63   0.90  29.64
H  22.04  12.97   4.77
H   5.81  22.91  13.37
H   7.77  21.81  32.56
H   2.28  19.89  13.01
H   5.68  13.16  28.57
H  10.53  24.92   0.45
H  29.37   1.52   3.30
H   4.15  19.13  14.01
H   7.74  11.76   9.57
  864
  Step: 70
H  15.82  20.02  23.85
H   6.60  24.39  11.57
H   6.30  19.63   2.48
H  27.70  21.54  17.34
H  14.92  19.95  12.02
H  31.67   2.12   7.32
H   9.89  25.64  33.32
H   2.88  23.47   3.96
H  23.07  12.87  26.78
H   3.13  18.78  14.53
H  29.33  13.31  30.19
H  31.09  22.08  16.71
H  15.33   3.66  22.67
H  10.03   1.93   3.86
H  21.69  13.44  26.40
H   2.10  16.18  10.24
H  13.64   9.22  13.04
H  19.69  30.36  11.85
H   2.39   4.43   6.85
H  21.43  32.67  16.58
H   5.15  23.62   5.27
H  30.00   9.43  13.71
H  29.49  11.95  26.93
H   9.47  17.33   4.78
H   3.23  24.46  29.01
H  19.65   6.68   5.89
H   3.94  18.45  32.07
H  19.53  13.09  25.28
H  16.13  27.70   4.98
H   9.34  30.25  31.14
H  18.99  27.12  28.96
H   2.06  18.56  15.33
H  10.68  19.04  22.07
H   8.52  17.55  20.26
H  28.30  10.12  14.68
H  11.05  18.00  21.63
H   4.11  16.24   6.17
H  27.29  27.89   0.94
H  32.30   6.81  31.06
H  29.71   7.20  12.64
H  29.22   7.25  14.07
H  21.43  21.58  23.55
H   5.06  16.04  31.13
H  13.61  20.61  27.26
H   2.89  25.91  19.85
H  16.45  11.38  18.81
H   3.64  24.64  11.12
H   1.53  31.57  15.13
H   0.06  17.49  26.81
H  16.79  22.84  26.28
H  13.27  24.65   0.19
H  23.52  10.11  27.75
H  21.47  13.94   5.17
H   6.26   8.64   4.24
H  24.79  26.25  26.38
H  31.56   7.34  27.62
H   1.31  16.82  15.17
H   0.95  19.59  13.70
H   7.47  13.83  16.69
H  28.00   7.45  13.32
H  23.94  10.30   8.57
H   1.73  19.71  14.85
H  22.56  23.77  26.64
H  30.46  11.51  29.63
H  13.72  10.42  17.67
H  15.22  10.83  20.43
H  29.25  13.42  27.17
H  28.58   1.55  16.04
H   0.97  18.77  20.30
H  11.48  27.16  32.68
H   6.24  17.73  28.86
H   2.13  18.61  16.34
H  10.63  16.90  22.79
H  27.11   1.84  27.75
H  19.85  26.56   2.45
H  25.09   3.52  29.04
H  20.76  13.76  26.78
H  14.39  27.43  30.09
H  26.10   3.51  28.42
H  17.83  22.86  13.24
H   5.43  12.40  29.26
H   1.43  19.18  15.82
H  29.37  10.23  15.43
H   2.22  31.34  15.80
H  11.83   8.74   3.39
H   6.66  22.38   0.83
H  17.22  16.66   3.58
H   1.09   2.53   5.10
H  16.28  11.57  16.32
H  11.58  24.94   1.00
H   7.64  22.03  21.86
H  31.44  31.00  21.66
H   9.02  15.39  21.11
H  17.90  28.98   6.91
H   5.32  20.71   2.43
H  11.90  25.37  32.29
H  22.70  13.70  25.84
H  18.95  13.09   6.81
H   9.00  18.08  21.91
H  13.12  22.01  13.66
H   5.75  22.69  32.54
H  26.84   2.89  29.17
H  25.64  11.42  24.28
H  26.52   1.30  31.65
H   6.68  24.80  12.56
H  31.81   3.26   5.27
H  19.76   1.47  25.07
H  30.23  12.48  26.38
H   5.52  22.44  12.16
H  15.51  12.20  18.18
H  16.04  21.52  27.78
H  12.99  25.68  31.52
H  32.60   2.18   4.50
H  30.86  12.52  29.47
H  11.07  26.29  32.06
H   6.39  25.49   8.83
H   4.02  13.70  30.81
H   1.35   2.90   6.04
H   2.83  25.02  10.14
H  21.35  13.64  28.58
H   3.79  24.41  12.18
H  10.97  24.87  31.63
H   1.17   1.27  18.45
H  16.38  23.67  26.95
H   9.82  21.26  13.18
H  32.94   4.13  15.56
H   3.44  19.86  12.93
H   9.38  17.50  21.12
H  32.59  12.43  12.83
H   6.90  28.82  18.53
H  12.64   3.78  13.23
H  33.07   0.50  24.87
H  14.83  22.73  26.25
H  30.85  13.60  29.66
H   5.11  24.28   9.74
H  25.67   0.50  31.56
H   5.62  13.40  29.60
H   7.36  30.01  23.51
H  29.27  20.69  18.41
H   3.73   1.22  23.81
H   9.27  16.56  15.29
H   7.78  24.65  22.85
H  28.27  13.61  29.95
H  29.63  10.82  29.38
H  19.57  28.48   4.92
H   6.10   1.04  29.66
H   3.35  12.83  30.95
H  20.46  11.01  14.45
H   2.05  17.95  13.37
H  28.97   6.57  13.28
H   2.97  17.76  15.61
H   5.64  32.87  18.32
H  25.80   1.79  29.69
H  16.12  24.30  27.81
H  26.41  26.88  24.24
H  17.67  28.56   5.69
H  26.77   1.86  28.75
H  17.14  22.30  28.00
H  29.94   6.76  17.00
H   3.18   3.54   0.65
H   5.41  13.74  30.65
H  29.85  11.54  27.94
H  32.08  10.61  10.00
H  18.18  14.55  18.07
H   3.28  25.68  11.01
H   9.19  10.91   7.06
H  31.15  27.35   0.06
H  33.42  31.44  24.87
H  12.38  25.40  33.34
H  10.78  22.43   4.12
H   6.47   9.24   0.79
H   5.36   2.43  15.29
H  32.66   2.43   7.84
H  10.37  17.03  20.79
H   7.11  22.29  33.28
H   9.99  11.91  17.87
H  14.95  11.45  18.63
H  26.48  31.22  19.52
H  29.35  23.37  27.06
H  25.94  13.23  24.45
H  15.45  10.07  16.83
H  10.97  16.22  20.90
H  15.96   2.23   4.77
H   3.59  19.84  14.70
H  21.09  22.92  25.40
H  30.31  13.60  27.11
H  17.48  14.66  23.88
H  26.54  14.12  24.82
H  21.47  12.13  30.51
H  17.04  28.90   3.36
H  11.67   4.11  11.34
H  32.47  17.78   9.51
H  30.38  12.00  17.67
H   1.55  17.84  19.19
H   4.87  10.09  17.98
H  30.52  31.25   2.52
H  22.19  18.73   4.12
H  17.91  27.77   6.42
H  22.99  14.80  26.07
H  15.32  21.58  26.46
H   4.80  22.48  11.26
H   8.90   4.36  16.21
H  20.07  31.38  11.87
H   1.40  22.89  11.71
H   7.28  32.85   3.19
H   9.02  18.43  20.79
H  16.13   6.28   4.69
H   6.67  20.12   1.52
H  32.21  18.88  23.54
H  14.63   9.86  15.80
H  15.48  10.08  29.58
H  33.09  24.25   4.54
H  32.09  13.14  19.37
H  22.40  12.64  28.95
H  14.83  23.07  27.98
H  14.11  23.10  26.90
H  13.39  10.60  23.57
H  10.25  33.12  26.52
H   7.60  20.76  32.98
H   9.88  18.42  21.53
H  21.78  13.86  27.41
H   0.61   5.27  17.64
H   1.14   3.78   5.19
H  31.42  11.20  24.16
H  29.97   9.44  17.59
H  10.11  17.32  21.76
H   6.63  20.84   0.62
H  20.66  12.92  26.10
H  32.02   4.00   6.28
H  23.85  12.28  26.25
H   7.78   8.55  31.55
H  14.67  10.46  18.27
H  30.22   8.98  12.66
H  16.34  14.06  17.43
H  29.39  12.47  27.85
H  19.32  31.06  32.33
H  22.12  14.76  10.78
H  15.69  10.33  19.13
H  32.18  13.17  25.95
H  31.21   5.51  13.65
H  26.09   2.90   9.82
H  31.21  12.74  28.30
H   4.05   1.23  25.84
H  10.62  17.99  22.77
H   5.26   1.77  21.52
H  14.03  10.66  29.55
H  14.55  28.46   4.25
H   6.97  16.58  30.09
H   6.63  11.84  27.70
H   7.06  23.81  12.41
H  14.52  20.78  17.85
H  20.44   0.66  16.04
H   6.70  30.73  20.81
H  31.26   2.52   6.19
H  13.88  16.33   4.95
H   0.76   2.47  14.76
H  22.01   4.29  17.38
H  30.12  18.39  14.81
H  10.90  25.88   0.88
H   7.88  30.32  21.61
H  27.64   6.44   1.43
H   1.37   7.42  27.01
H   6.42  28.09  22.86
H  28.16  27.00   1.13
H  14.75  13.06  16.60
H   3.49   3.88  24.88
H  18.56  10.12   6.52
H   2.47   8.71  32.50
H  32.94   3.23   6.96
H  24.15  27.88  20.79
H  31.77  31.75  32.54
H   5.09  23.43  11.91
H   8.83  19.48  32.97
H   9.92  18.73  20.38
H  16.37  22.96  27.72
H  19.70  25.32   0.45
H  30.36  10.35  26.66
H  23.19   4.77  12.35
H  16.22   9.85  17.99
H   2.01   6.13   7.83
H  30.83   9.16  14.66
H  29.57   8.48  13.75
H   4.00  21.22   2.18
H  11.95   8.06   8.86
H   8.91  20.40   3.82
H   7.62  22.22   1.40
H  16.57  29.90   3.99
H  18.13  29.76   5.13
H  16.99  29.48   6.09
H  29.26   9.18  13.08
H   0.72  25.03  21.80
H  29.30  16.85  19.42
H   9.35  19.82   1.52
H  33.20  25.29   0.24
H  14.85  11.27   5.24
H   3.71  12.99  29.84
H  16.67   8.40  25.88
H  16.46  21.98  26.85
H   7.52  24.07  13.87
H  15.62  10.89  18.06
H   9.53  17.60  22.81
H  22.86  12.26  32.50
H   2.45  20.51  14.87
H  29.75   9.97  12.23
H  21.42  12.14  26.30
H   4.52  13.61  29.14
H  10.30  33.07  24.33
H  13.79  25.98   5.87
H  31.86  20.98  20.37
H   7.61  20.76   1.23
H  15.14  21.30  28.40
H   8.88  18.86   1.23
H  29.62  33.21   9.37
H  20.81  27.46  33.10
H   2.57  12.48  30.39
H  21.56   5.21  11.20
H  25.41   9.85   0.23
H  16.92  14.88  24.96
H  27.58   0.34  29.52
H  21.74  14.48  26.28
H   4.72  13.08  30.22
H  11.02  18.17  20.32
H   6.29  22.12   1.72
H  17.48  29.19   4.50
H  13.55   9.82  19.08
H  15.04  20.67  27.22
H  13.24  13.88  10.27
H   9.97  26.74  32.38
H  10.65  24.17  16.96
H  32.28   7.07  16.01
H   6.56  20.55   4.38
H  26.20  29.64  11.16
H  17.41  25.83   6.69
H  12.65  26.70  33.42
H  25.65  27.52  23.70
H   3.81  15.04  31.98
H  18.09  26.94  30.34
H   3.62  33.38  14.61
H  14.51  30.50   7.27
H  26.09   2.29  27.49
H   6.45  13.78  30.35
H   0.04   1.08   6.35
H  20.32   4.36  15.27
H  31.88  10.88  22.54
H  16.56  25.24   6.27
H   7.74  16.66  20.66
H   0.32  32.98  25.68
H  19.20  16.18   6.85
H  11.51  28.11  31.29
H  22.74  12.59  25.74
H   2.83  23.40  13.19
H  31.03   9.67  13.24
H   1.35  30.90  11.53
H  31.17  10.53  28.45
H   9.50   8.94  32.24
H  28.96  31.70  28.38
H   4.35  12.17  30.79
H  32.25  30.70  29.23
H  19.16  29.39   5.45
H   7.94  13.20   0.54
H  23.93   1.57  13.34
H  24.73   1.56  29.94
H  26.73  21.04  17.95
H   2.68  19.49  15.21
H   3.60  10.36  10.77
H  25.50   0.20  30.61
H   4.42  26.01  12.32
H   0.35  21.79  19.42
H  32.12   2.06   5.60
H  22.95  13.82  28.44
H  26.89   2.85  28.16
H  29.84  12.45  29.92
H  10.69  26.47  28.07
H   0.76   1.46  13.41
H  25.66   8.29  14.76
H  15.99   1.48  16.22
H  19.73  32.19  15.97
H   3.74   6.22  28.81
H  10.81  27.30   0.05
H  32.54  10.92   8.86
H  15.73  22.41  28.38
H   4.42   6.90   4.96
H  14.46   9.53  17.81
H  16.07  12.05  14.57
H  28.18  27.53  21.98
H   8.37  17.53  21.34
H  14.44  12.34  17.45
H   1.88  17.56  15.87
H  21.32  12.76  27.08
H  16.03  28.91   3.82
H   6.18  26.35   8.25
H  20.94  18.55  28.23
H  10.15   6.04  32.78
H   0.09   3.85   4.65
H   1.21   3.89  26.02
H  25.19  32.84  27.00
H  29.88  10.61  13.34
H  13.41  10.52  22.21
H   7.99  32.01   0.31
H  12.24   4.63  21.01
H  13.19  26.20  32.47
H  16.07  28.92   6.41
H  16.16  10.75  17.03
H  11.35   9.97  29.54
H  23.65  28.62  32.30
H  32.85   0.46  13.22
H  11.28   7.28  22.91
H  23.01   8.89   4.99
H  30.37   8.09  14.58
H  17.77  30.18   3.69
H  16.05  12.62  15.93
H  25.96   1.27  30.60
H  32.50  23.81  31.82
H   8.30  16.20  21.51
H  13.69  26.16   6.89
H  16.00  26.81   5.49
H  17.12  10.53   4.17
H  11.11  31.26  26.92
H  23.88   6.55  11.12
H  10.13  21.26  12.17
H  28.84  20.44   7.11
H  32.08   1.95   1.61
H   6.02  29.28  22.54
H  23.66  14.07  27.55
H  28.18   2.90  14.44
H   0.22   1.91   5.03
H  28.10  19.32   5.95
H  28.42   8.44  13.04
H   5.09  21.84   2.46
H  21.33  25.44  19.49
H  14.14  28.47   9.90
H  25.80  31.45  28.79
H  24.09   6.87  20.64
H  16.66  28.62   5.35
H   2.79   0.58  10.12
H  24.45  27.56  19.38
H  11.66  24.23   0.17
H   3.07  23.76  10.78
H  25.90   2.60  28.85
H  18.32  29.55   6.14
H   5.91  24.02  12.92
H  27.48  18.92  12.63
H   7.10  20.41   2.49
H  15.74   3.64  25.41
H  31.06  26.32   5.72
H   6.11  21.93   3.20
H  29.28  11.77  29.45
H  15.74   7.09   3.80
H  31.34  10.60   9.26
H  31.46  20.89   5.47
H  21.74  12.12  27.96
H   8.23   9.76   6.26
H   5.84  20.82   1.46
H  28.43   8.04  14.40
H  13.78   2.70  24.36
H  15.71  12.66  17.15
H   9.07  16.23  19.42
H  10.47  15.86  21.76
H  16.37  11.78  17.80
H  15.58  22.69  23.37
H   4.75  10.33  22.39
H  31.99   3.51  21.29
H  30.94   3.61   6.32
H   4.42  18.54  14.90
H  11.41   3.96  12.50
H  29.93  10.32  14.48
H   2.11  29.26  20.19
H   8.07  15.65  20.68
H  15.91   6.19   6.13
H  24.03  14.43  26.67
H  13.39  12.11  17.21
H  17.66  31.49  14.89
H   5.28  14.33  29.64
H   5.64  24.13  10.97
H  30.18  13.22  28.04
H  17.53  22.34  27.02
H  28.64  16.06  33.05
H   5.86  22.75   2.51
H  24.96  23.72  16.68
H   3.01  20.98  25.51
H  13.10  10.30   4.99
H  29.36   8.71  12.11
H  16.14  31.00  24.04
H  18.00  23.98  12.87
H  26.76   0.20  28.82
H  18.05  26.83   5.69
H   5.22  20.95   3.53
H  23.69  12.65  27.74
H   6.92  30.98  22.88
H  14.16  31.96  10.65
H   5.32  23.11  10.48
H  15.91  31.86  14.52
H  15.82   7.32  31.67
H   2.47  17.79  14.58
H  25.02   2.68  29.60
H  30.64  11.41  26.54
H   2.92  22.30  13.36
H  22.81  11.98  28.00
H   1.08   2.92   7.12
H  18.93   5.84  28.87
H  32.36   2.58   8.79
H  24.70   6.04  20.25
H   1.76  23.04  13.12
H   7.30  23.20   0.84
H  11.07   4.41  21.46
H   6.00  13.10  31.81
H  13.81  21.61  17.54
H  23.97  16.10  31.06
H  13.22  18.64   9.19
H  16.80  29.91   5.17
H   4.71  22.67  12.93
H  11.82  10.84  29.03
H   8.34   5.84   4.56
H  22.13   5.31   8.24
H  23.21  22.57  18.72
H   2.03  29.15  22.73
H  24.71   1.95  28.81
H  31.01  11.68  28.27
H  33.24   2.28   6.02
H  27.68   1.36  28.64
H  15.58  28.25   5.71
H  29.13  11.13  32.55
H   0.63  18.16  16.66
H  26.01   3.35  29.92
H   5.49   2.77   7.09
H  28.91  12.47  31.24
H  28.04   7.65  18.95
H  31.36  16.84  19.50
H  30.55  12.58   5.61
H   6.18   4.08  25.55
H   5.59  11.87  31.44
H  16.13  15.89   8.26
H  16.99  28.50   6.65
H  29.11   6.79  28.39
H   2.92  22.08  12.29
H   7.70  21.60   0.43
H  31.87  31.91  27.77
H   5.46  11.57  30.06
H  25.30  20.51  20.97
H   9.21   2.21  14.25
H   7.42  31.31  21.91
H   5.95  27.71   4.72
H  25.02   3.76  17.72
H  12.90  25.11  32.48
H   2.90  19.66  13.91
H  14.00  11.50  17.97
H   7.24  10.36  15.50
H  16.81   9.18   5.62
H  18.81  18.39  13.66
H  25.43   2.48  30.49
H  32.02  31.28  30.15
H   4.85  13.19  31.47
H  33.07   4.14   6.16
H  28.73   7.54  12.40
H  17.30  21.20  27.30
H   4.10  25.46  10.50
H   3.02   0.84  24.84
H  30.29   7.77  13.45
H   6.76  23.02  13.05
H  27.25  18.53   4.67
H  15.64  23.87  26.08
H  29.98   7.26   9.60
H  14.28  11.04  16.90
H   2.81  21.96  14.35
H  19.82   8.02  24.84
H  18.75  28.27   6.10
H  15.09  22.11  27.51
H  19.68  33.39  16.07
H  10.29   2.92  14.16
H  25.45  24.11  31.57
H   7.15  16.74   6.01
H   5.51  11.59  27.25
H   0.33   3.19   6.31
H  11.32  32.80  26.43
H   4.69  12.50   5.11
H  15.06  32.64  12.91
H  12.29  24.38  32.89
H  18.35  28.64   4.72
H  32.52  11.40  12.27
H  17.99  27.30  28.75
H   6.10  14.12  31.45
H  12.70  26.71   6.46
H  30.88   8.65  13.58
H  15.27  11.56  17.23
H  20.28   5.26  10.24
H   7.22  21.34   2.08
H  28.67  12.14  28.55
H  32.99  14.01  30.05
H  14.88   2.49  22.96
H  22.82  14.74  27.43
H  12.62   4.32  11.97
H   6.58  12.78  30.96
H   7.38   1.69  30.02
H   8.16  20.30   2.11
H  21.95  10.55   1.06
H  31.66  12.50   9.67
H   3.83  33.07  11.93
H   1.59  17.18  17.06
H   6.67  29.81   9.02
H  28.59  12.57  29.82
H  10.82  17.51  19.53
H  25.26  17.18  15.60
H  15.67  28.68  31.06
H  23.10  14.20  14.01
H  19.13   2.02   1.92
H   3.94  24.57   9.96
H  11.26  16.96  21.69
H  23.48  12.68  28.82
H   0.11  11.79  25.17
H   5.70  11.70  28.39
H   9.73  28.34   0.47
H   1.10  15.63   8.36
H  29.89  12.43  28.86
H   6.41   5.00  23.66
H   3.56  24.07  15.95
H   6.01  21.64   0.23
H  10.28  25.49  32.23
H  29.98   2.95   9.51
H   6.62  29.32  23.46
H  22.28  12.22  26.95
H  22.84  17.68  11.16
H  17.79   9.07  17.23
H  31.88   3.76  14.79
H  11.17   6.25  32.36
H   1.52  22.17   8.19
H  12.14  26.25  32.68
H  22.69   4.00   3.93
H  15.39  19.25   4.81
H  14.24  22.03  26.91
H   8.81  16.53  20.55
H   1.11  11.47  26.43
H   8.03   4.59   5.17
H  32.99  17.75   4.54
H  17.02  24.54  27.11
H   4.62  24.82  11.58
H   7.02  12.68  13.02
H  17.55  17.06  29.14
H  30.48  12.28  27.51
H  19.93   9.64  32.92
H   9.88  15.82  27.40
H   3.30  18.87  13.32
H  16.75  29.52   7.10
H   3.84  21.33  22.04
H  31.81   3.14   6.89
H  13.06   0.61  23.82
H   5.19  14.92  30.99
H   9.68  24.03  27.77
H  18.29   3.09  32.38
H  16.55  31.83   5.14
H  11.74   5.88  17.76
H   1.09   3.02   4.05
H   7.57  12.68  26.13
H  29.05   9.98  13.81
H   8.60   8.67  21.05
H  25.94  22.46  20.70
H  16.54  18.00  11.34
H   7.56  16.96  21.69
H  12.82  14.11  15.33
H   5.72  12.54  30.46
H   7.81  22.74  14.22
H  14.50  24.74  27.37
H  25.61   1.56  28.28
H  28.74  10.68  12.54
H  28.01   9.35  12.73
H  24.10  15.46  32.88
H  32.70  21.21  11.87
H  13.85  25.80  33.22
H  11.27  17.50   0.38
H  32.45   2.07   6.62
H  26.72   0.85  27.99
H  14.77  13.31  17.61
H  21.50   9.47   5.69
H  13.89  25.18  32.23
H  15.88  10.70   4.78
H  29.59  13.56  29.11
H  10.95  26.01  30.99
H  13.28   3.06  19.33
H  27.23   2.96   1.26
H   9.80   4.24   0.60
H  16.78   8.98   4.10
H  31.00  22.09  21.42
H   4.25  23.70  10.55
H   2.70  21.88  24.01
H  24.99   0.74  29.15
H  15.41  10.95  16.07
H  26.09   8.20  13.70
H  10.25  31.00  30.68
H  12.25   7.39   3.59
H   7.29  19.78   0.06
H  17.81   5.64  28.98
H  11.22  25.01  33.07
H  23.24  11.78  27.02
H  20.22   1.96  26.36
H  22.39  15.30  15.10
H  28.87  10.53  27.14
H   9.78  16.13  20.89
H  33.14  31.25  29.36
H  12.09  26.07  31.58
H  32.39   4.51   5.47
H   1.49  17.58  14.48
H  19.55  30.94  31.23
H  15.70  22.72  26.83
H   9.33  16.54  21.90
H   0.27  15.82  15.05
H  10.71  22.55  25.71
H   8.88   8.00  32.27
H  15.89  30.39   9.25
H  15.05  24.17  28.34
H   6.01  15.43  31.51
H  15.68  29.34   5.09
H  26.58   2.32  30.96
H  22.55  12.96  27.85
H  19.21   6.25  10.33
H   6.80   3.23  25.52
H  12.40   9.80  12.12
H  25.41  18.26  12.13
H  28.36   9.17  13.98
H   6.65  23.13   1.64
H   7.12   1.60  26.13
H  32.60   3.15   6.04
H   2.89  15.54  32.27
H  27.13   1.85  29.69
H  32.56  20.94   2.82
H  20.96   5.61  14.39
H   0.97  18.28  15.21
H   8.91   5.51  11.86
H  32.47   3.44   4.47
H   0.43   7.89  31.53
H  22.68   1.47  12.10
H  29.86  10.53  28.22
H  29.32  27.21   9.67
H  15.29  23.74  27.17
H  20.29   0.48  25.32
H  15.24  22.55  29.34
H  17.64  17.55  10.49
H  14.28  33.05  11.28
H  33.36  17.17  25.83
H   3.08  16.75  15.03
H  20.46  10.55  10.52
H  19.48  31.05  24.87
H  30.92  10.29  14.15
H  11.62  14.75  32.35
H  28.03   6.21  13.72
H  23.95  13.46  26.29
H  16.75  24.12  26.04
H  29.27  30.29  29.52
H  20.55  13.29  27.84
H  13.15   0.92  27.70
H  11.43  25.29  23.84
H   2.88   5.00   7.61
H   2.64  20.17  27.27
H   7.48  29.27  22.57
H  11.70  26.20   0.15
H  24.81   2.97  28.12
H  16.33  23.94   1.61
H   3.35  18.77  15.69
H   1.99  23.73  25.55
H  10.81   0.58  14.40
H   7.34  21.64   3.12
H  33.37   2.81   4.18
H  28.08  20.64  18.60
H   8.97   2.35   9.59
H  10.62  25.28   2.89
H   6.97  22.63   2.54
H  12.24   4.24   3.12
H   0.70  18.45  27.19
H   0.22   2.10   7.14
H  31.77  19.95  23.25
H   2.61  19.85  16.53
H  17.22  23.57  27.64
H  24.65  11.46   9.87
H  33.20   2.84   5.22
H  31.60  30.19   8.02
H   1.39  28.39  18.28
H  24.25   9.45   5.33
H   6.63  30.19  22.09
H  18.18  17.31   6.61
H   2.59  31.44  17.32
H  30.61   4.90  14.14
H   4.03  23.28  11.61
H  31.43  17.44  21.09
H  13.28   2.22  20.02
H  12.06  17.51  23.40
H  31.60  23.24  31.49
H  19.13   1.02  30.21
H  12.39  18.27  25.55
H  17.88   4.06   4.91
H  10.06  16.47  19.87
H   7.95  16.90  13.67
H   1.11  18.59  14.11
H  26.98   1.11  30.61
H   3.11  25.47  27.99
H  15.01  27.20  18.73
H   4.57  14.38  31.78
H   2.63  23.16  12.23
H  18.95  29.43   4.43
H   8.20  20.16  26.87
H  25.08  24.74  30.15
H   5.17  25.12  10.50
H  25.62  25.09  14.98
H  25.14  14.11  24.54
H   6.28  23.33  11.98
H  28.42  11.16  29.12
H  11.03   0.70  32.33
H  26.94   4.44   0.39
H  24.16   2.99  28.95
H   8.73  19.48   8.12
H  29.17  21.88  19.29
H  10.79  26.07  33.21
H   8.66  21.91  21.45
H  22.62   4.87  25.45
H   5.56  25.42  12.70
H  26.30  30.41  28.31
H   4.72  23.71  12.83
H  22.75  26.78  20.71
H  17.79  16.86   5.07
H  16.84  27.51   5.85
H   2.69   0.97  11.19
H   5.59  24.40  11.97
H   5.98  22.83  29.58
H   6.28  22.06  12.76
H  18.49  27.67   5.16
H   5.52  23.86  32.34
H  14.05  23.75  27.73
H  22.64  13.87  26.86
H  20.70  18.50   6.63
H  29.39   9.45  14.68
H  14.95  11.99  16.28
H  13.91  12.20  16.15
H  28.10   7.04  14.34
H  20.83  31.45  25.53
H  32.87   1.25   5.41
H   6.29  21.15   2.51
H   9.84  17.57  20.13
H   5.24  21.60  10.13
H  11.49  25.78   1.83
H  21.36  19.29   3.82
H   2.18  18.80  14.04
H  23.70  12.85  25.14
H   8.31  21.44   2.60
H  24.10  22.51  10.29
H   9.49   0.63  26.56
H   4.17   8.22  26.41
H  10.63  26.57  23.14
H   9.98  21.72   2.30
H  16.11  21.63  25.54
H  30.57  10.82  27.52
H  16.05   9.35  19.96
H   6.21  14.63  24.51
H  20.08   9.81   4.49
H  17.48  27.53   5.00
H  12.33  25.83   0.90
H   3.66  17.68  14.73
H   6.65  12.73  29.71
H  26.63   0.90  29.64
H  25.45  26.86  18.78
H   5.81  22.91  13.37
H  16.01  27.01  29.31
H  14.71  10.51  19.59
H   1.60  30.82  32.18
H  10.53  24.92   0.45
H   8.28  22.67   0.22
H   4.15  19.13  14.01
H   7.74  11.76   9.57
  864
  Step: 80
H  15.82  20.02  23.85
H   6.60  24.39  11.57
H   6.30  19.63   2.48
H  12.77  20.47  21.15
H  17.12  32.15  16.10
H  31.67   2.12   7.32
H  25.11   8.99  19.34
H  22.00  31.82  18.07
H  23.07  12.87  26.78
H   3.13  18.78  14.53
H  29.33  13.31  30.19
H  17.46   0.88  28.07
H  13.61  22.75  14.56
H   0.49  12.47  27.12
H  21.69  13.44  26.40
H  16.61   6.83  14.12
H  25.71  27.44  22.10
H  18.25  15.43  18.98
H  21.81   5.69   2.13
H  29.87  17.43  24.65
H   8.73  21.48   2.11
H  30.00   9.43  13.71
H  29.49  11.95  26.93
H  20.59  15.45   2.84
H  10.85   1.59  30.16
H  16.98   7.09  15.14
H   0.99  15.64  14.53
H  30.72   5.71  16.49
H  16.13  27.70   4.98
H  17.66  11.01  23.61
H   1.23   6.72  25.92
H   2.06  18.56  15.33
H   3.50  32.47  13.96
H   8.52  17.55  20.26
H  28.30  10.12  14.68
H  11.05  18.00  21.63
H  14.11  23.88  26.21
H   7.85  27.05  26.88
H  17.25  27.98  29.80
H  29.71   7.20  12.64
H  29.22   7.25  14.07
H   8.99  22.61  14.18
H  13.64  32.34  15.92
H  30.59  20.85  30.87
H  16.93  11.34  15.44
H  16.45  11.38  18.81
H   3.64  24.64  11.12
H  17.82   5.15  23.57
H  25.02  28.69  25.28
H  16.79  22.84  26.28
H  13.27  24.65   0.19
H  21.46  17.03  19.79
H  32.53   1.97   8.01
H   6.26   8.64   4.24
H  24.79  26.25  26.38
H  19.17  32.54  15.40
H  13.14   1.19  25.98
H   0.95  19.59  13.70
H   7.47  13.83  16.69
H  28.00   7.45  13.32
H  12.14  24.60  31.46
H   1.73  19.71  14.85
H   0.86   3.23  17.80
H  30.46  11.51  29.63
H  13.72  10.42  17.67
H   6.27  31.31  21.81
H  29.25  13.42  27.17
H  17.67  26.50  18.41
H   0.97  18.77  20.30
H  11.48  27.16  32.68
H   5.96  14.25  32.49
H   2.13  18.61  16.34
H  10.63  16.90  22.79
H  27.11   1.84  27.75
H   0.14   6.30  12.65
H  25.09   3.52  29.04
H  20.76  13.76  26.78
H  13.68  22.53  17.48
H  26.10   3.51  28.42
H   7.99  21.28  20.84
H   5.43  12.40  29.26
H   1.43  19.18  15.82
H  29.37  10.23  15.43
H   2.22  31.34  15.80
H  24.53  12.45  27.10
H  17.05  26.40   6.17
H  15.94  22.61  25.55
H   1.09   2.53   5.10
H  16.28  11.57  16.32
H  11.58  24.94   1.00
H   7.64  22.03  21.86
H  21.47  21.23  12.99
H   9.02  15.39  21.11
H  17.90  28.98   6.91
H   5.32  20.71   2.43
H  11.90  25.37  32.29
H  22.70  13.70  25.84
H  18.95  13.09   6.81
H   9.00  18.08  21.91
H  13.12  22.01  13.66
H  21.23  24.64  18.01
H  26.84   2.89  29.17
H  10.64  32.52   2.50
H  26.52   1.30  31.65
H   6.68  24.80  12.56
H  31.81   3.26   5.27
H  27.70  21.76  24.95
H  30.23  12.48  26.38
H   5.52  22.44  12.16
H  15.08  10.40  17.12
H  16.04  21.52  27.78
H   1.31   6.15   5.10
H  32.60   2.18   4.50
H  30.86  12.52  29.47
H  11.07  26.29  32.06
H  13.62  10.77  18.85
H   4.02  13.70  30.81
H   1.35   2.90   6.04
H   2.83  25.02  10.14
H   7.80   7.50  33.18
H   3.79  24.41  12.18
H  10.97  24.87  31.63
H  23.69  15.23  27.76
H  16.38  23.67  26.95
H  12.36  12.90   2.26
H  24.20   7.87  30.45
H   8.20   3.34  23.57
H   9.38  17.50  21.12
H  32.59  12.43  12.83
H  22.20   8.40   6.81
H   9.01  29.22   8.15
H  33.07   0.50  24.87
H  14.83  22.73  26.25
H  21.51  18.79   7.36
H   5.11  24.28   9.74
H  29.55  32.77   4.24
H   5.62  13.40  29.60
H   9.90  22.52  15.39
H  15.79   7.30   6.37
H   1.86  31.75  14.85
H  31.08   1.29  30.00
H   5.33  23.64  19.22
H  18.10  22.77  27.70
H  29.63  10.82  29.38
H  19.57  28.48   4.92
H  16.30  23.88  24.88
H   3.35  12.83  30.95
H  26.70  17.20  32.60
H   2.05  17.95  13.37
H  28.97   6.57  13.28
H   2.97  17.76  15.61
H  31.44   7.52  26.66
H  25.80   1.79  29.69
H  16.12  24.30  27.81
H  10.31  31.65  28.90
H  17.67  28.56   5.69
H  26.77   1.86  28.75
H  17.14  22.30  28.00
H  19.62  15.44   5.75
H   4.03  27.30  25.16
H   5.41  13.74  30.65
H  29.85  11.54  27.94
H  21.10  23.17   8.98
H  12.02  20.83  26.93
H  13.77   4.14  23.24
H   7.43  19.41   1.87
H  12.15  30.59  24.62
H   2.45   4.83  14.85
H  12.38  25.40  33.34
H   7.88  20.53   3.28
H   6.47   9.24   0.79
H   5.69  30.94  22.83
H  23.87   6.84  30.21
H  10.37  17.03  20.79
H   7.11  22.29  33.28
H  29.52  24.72  19.99
H  14.95  11.45  18.63
H   8.09  15.78  28.50
H  29.35  23.37  27.06
H   9.95  31.05  12.29
H  23.21   7.26  10.72
H  10.97  16.22  20.90
H   0.86  17.58  13.62
H   3.59  19.84  14.70
H  14.98  32.37  19.20
H  29.65   5.28  30.41
H   6.53  22.30  13.88
H  33.31  18.64   9.11
H  14.91  18.70   9.52
H   8.27  30.64  26.58
H  27.26  16.30  32.17
H  13.39  26.38   1.72
H  30.38  12.00  17.67
H  16.79  24.96  10.43
H   4.87  10.09  17.98
H  30.52  31.25   2.52
H   8.60  24.67   9.85
H  17.91  27.77   6.42
H  16.71   8.12   8.59
H  15.32  21.58  26.46
H   4.80  22.48  11.26
H  27.92  10.85  17.86
H   5.80  21.72  28.00
H   1.40  22.89  11.71
H   7.28  32.85   3.19
H   9.02  18.43  20.79
H  17.46  19.02  10.94
H   6.67  20.12   1.52
H  23.96  15.40   1.94
H  14.63   9.86  15.80
H  30.67  12.41   1.85
H   6.60  11.93  31.76
H  25.22  14.99  31.85
H  22.40  12.64  28.95
H  14.83  23.07  27.98
H  14.11  23.10  26.90
H   0.88  10.19  18.55
H  33.31   1.33   6.46
H  22.78  31.54  18.83
H   9.88  18.42  21.53
H  21.78  13.86  27.41
H  16.54  31.05  19.86
H   1.14   3.78   5.19
H  23.70  15.94  19.80
H  26.75  16.03  33.36
H  10.11  17.32  21.76
H   6.63  20.84   0.62
H  20.66  12.92  26.10
H  32.02   4.00   6.28
H  23.85  12.28  26.25
H   1.79   0.86  32.70
H  14.67  10.46  18.27
H  30.22   8.98  12.66
H  20.23   1.51   2.22
H  29.39  12.47  27.85
H   6.00  17.87  13.43
H  26.48  12.06  24.64
H  15.69  10.33  19.13
H   5.34  31.48  33.30
H  29.82   6.49   8.09
H   0.05   0.81  21.21
H  31.21  12.74  28.30
H  16.28   5.68  32.43
H  10.62  17.99  22.77
H   5.25  27.99  29.53
H  23.15   7.51  30.55
H   2.75  15.35   5.32
H   1.94  22.09  13.45
H  15.26  29.50  31.63
H   7.06  23.81  12.41
H  14.52  20.78  17.85
H  32.01  16.15   6.78
H   3.74  13.23  10.37
H  31.26   2.52   6.19
H   7.94  14.36  22.79
H  25.93  20.85   2.43
H  22.01   4.29  17.38
H  23.30   0.41  30.19
H  10.90  25.88   0.88
H   9.48  24.39  10.72
H   8.95  21.90  13.24
H   1.37   7.42  27.01
H   2.52  17.09  33.39
H  27.44   6.93  18.46
H  14.75  13.06  16.60
H  29.94  13.28   2.32
H  16.30  20.82  26.99
H   6.62  13.07  32.78
H  32.94   3.23   6.96
H  28.27  29.00  26.64
H  31.77  31.75  32.54
H   5.09  23.43  11.91
H  14.87  30.70  31.11
H   9.92  18.73  20.38
H  16.37  22.96  27.72
H  31.79   3.47  27.09
H  30.82  14.02   0.94
H   3.85  24.80  27.05
H  16.22   9.85  17.99
H   9.81  25.73   2.03
H  30.83   9.16  14.66
H  29.57   8.48  13.75
H  31.00   4.57  22.41
H  18.77  14.97   0.58
H   6.87   3.93  13.85
H   7.62  22.22   1.40
H  16.57  29.90   3.99
H  18.13  29.76   5.13
H  16.99  29.48   6.09
H  29.26   9.18  13.08
H  32.77   3.58  27.55
H  29.30  16.85  19.42
H  32.30   3.22   7.79
H  22.03   0.21  10.78
H  25.71  18.09   5.40
H   3.71  12.99  29.84
H  32.20  26.95  31.56
H  16.46  21.98  26.85
H   9.72  12.48  28.05
H  15.62  10.89  18.06
H  21.09  19.93  24.30
H  26.78  15.58  12.10
H   2.45  20.51  14.87
H  29.75   9.97  12.23
H   6.42  11.25  30.12
H   4.52  13.61  29.14
H  32.51   1.09   7.17
H  30.52  29.21   2.47
H  27.18   9.10  14.25
H   7.61  20.76   1.23
H  17.10  30.51   6.15
H  31.06  27.37   1.50
H   5.00   4.04   9.02
H  27.81   7.96  17.24
H   4.04  16.71   3.47
H  16.32  27.91   7.33
H  28.26  18.18   5.49
H  13.27   5.44   4.85
H  27.58   0.34  29.52
H  21.74  14.48  26.28
H   4.72  13.08  30.22
H  11.02  18.17  20.32
H   6.29  22.12   1.72
H  17.48  29.19   4.50
H  27.86  22.77  18.60
H  11.75  28.97  28.21
H  14.24  28.42  30.40
H  10.04  25.22  10.09
H  25.62   0.56   3.54
H  13.90   9.80  16.72
H  26.93  16.98  25.91
H   9.83   7.11  33.09
H  31.34  17.63   4.58
H  12.65  26.70  33.42
H  22.27  13.08  15.57
H  30.80   4.33  17.08
H  13.91  12.80   4.51
H  18.58  28.34  22.05
H  12.65   8.79  26.91
H  33.48   5.93  27.36
H   6.45  13.78  30.35
H   5.07  27.62   3.98
H  17.84  25.85   5.73
H  22.84  12.34  14.71
H  20.57  10.00   1.70
H   7.74  16.66  20.66
H  31.03  13.62  28.85
H  14.65  31.44  19.85
H  27.86  22.12  16.55
H  22.74  12.59  25.74
H  11.80   4.19   8.86
H  31.03   9.67  13.24
H  10.36  24.10  32.92
H  31.17  10.53  28.45
H  23.04   4.08   0.95
H  22.24  21.43  24.80
H   4.35  12.17  30.79
H  27.59   7.98   3.41
H  19.16  29.39   5.45
H  24.47   3.04  12.34
H  29.85   4.45  21.95
H  24.73   1.56  29.94
H  17.64   1.03  22.10
H   2.68  19.49  15.21
H   8.02  22.34   2.59
H  25.50   0.20  30.61
H   4.42  26.01  12.32
H   3.22  33.24   9.53
H  32.12   2.06   5.60
H  22.95  13.82  28.44
H  26.89   2.85  28.16
H  29.84  12.45  29.92
H  28.31  22.63  31.63
H   8.13   0.01  27.69
H  25.99  28.80  20.64
H  19.30  26.80   8.21
H  15.43  29.54  30.35
H   1.15   8.49   6.17
H  10.81  27.30   0.05
H   2.71  22.87  13.74
H  15.73  22.41  28.38
H   4.42   6.90   4.96
H  14.46   9.53  17.81
H  25.03  26.60  21.50
H  12.85  24.84   1.10
H   8.37  17.53  21.34
H  14.44  12.34  17.45
H   1.88  17.56  15.87
H  21.32  12.76  27.08
H  17.37  15.97   2.64
H   2.08  29.75  27.59
H  32.68  27.77  31.21
H   9.01  18.33  19.47
H  26.91   7.24   9.60
H  33.50  10.68   6.43
H  30.79   1.08  16.01
H  29.88  10.61  13.34
H  13.48  13.60   2.98
H  17.52  17.21   2.13
H   2.83  31.90  18.81
H  13.19  26.20  32.47
H  16.07  28.92   6.41
H  16.16  10.75  17.03
H  30.14   4.47  23.01
H   8.57  13.18  22.22
H  14.42  30.09  21.19
H  10.53   8.81  10.12
H   1.10   6.30  27.27
H  30.37   8.09  14.58
H  18.70  16.49  12.92
H  16.05  12.62  15.93
H  25.96   1.27  30.60
H  32.50  23.81  31.82
H   8.30  16.20  21.51
H  10.46   3.34   6.73
H   4.89  28.74  30.72
H  11.92  29.85  29.92
H  11.11  31.26  26.92
H  23.88   6.55  11.12
H   2.45  21.06  24.63
H  13.15  23.20  27.18
H  32.08   1.95   1.61
H  29.87  20.06  30.57
H  23.66  14.07  27.55
H  28.79   6.32  12.23
H   0.22   1.91   5.03
H  11.29  33.39  24.40
H  28.42   8.44  13.04
H   5.09  21.84   2.46
H  28.42   0.12   8.80
H  22.62   1.23  25.61
H  25.80  31.45  28.79
H  19.95   3.42  33.13
H  16.66  28.62   5.35
H  19.50   3.35  20.15
H   9.26  13.01   5.81
H  11.66  24.23   0.17
H   3.07  23.76  10.78
H  25.90   2.60  28.85
H  18.32  29.55   6.14
H   5.91  24.02  12.92
H  11.67  17.57  24.86
H   7.10  20.41   2.49
H  15.74   3.64  25.41
H  10.36   0.31  24.70
H   6.11  21.93   3.20
H  29.28  11.77  29.45
H  19.19  19.69  33.32
H  14.85  14.31   9.63
H  28.00  28.28  10.95
H  21.74  12.12  27.96
H   8.23   9.76   6.26
H   5.84  20.82   1.46
H  28.43   8.04  14.40
H  29.14  24.90   7.97
H  15.71  12.66  17.15
H   9.07  16.23  19.42
H  10.47  15.86  21.76
H  16.37  11.78  17.80
H  33.36  21.39  19.22
H  23.71  32.30  18.75
H  31.99   3.51  21.29
H  30.94   3.61   6.32
H   4.42  18.54  14.90
H  19.80  17.26   1.53
H  29.93  10.32  14.48
H   1.89   4.43   9.38
H   3.10  26.53  13.03
H  32.64  24.92   2.28
H  28.50  11.82  14.52
H  13.39  12.11  17.21
H  17.66  31.49  14.89
H   6.54  31.97  22.67
H   5.64  24.13  10.97
H  30.18  13.22  28.04
H  17.53  22.34  27.02
H  31.19  15.71  23.85
H   5.86  22.75   2.51
H   4.72  14.44  29.83
H  23.73  22.04   4.78
H   6.73  10.83  14.51
H  29.36   8.71  12.11
H  30.10  13.28   1.21
H  32.03  11.39  28.45
H  26.76   0.20  28.82
H  18.05  26.83   5.69
H  28.89  11.00  30.13
H  23.69  12.65  27.74
H   6.92  30.98  22.88
H   1.41   7.90   0.07
H   5.32  23.11  10.48
H   5.16  26.20  24.79
H   3.77  27.46  13.82
H   2.47  17.79  14.58
H  25.02   2.68  29.60
H  30.64  11.41  26.54
H   0.70  21.23  13.40
H  22.81  11.98  28.00
H  28.07  12.19  24.37
H  18.93   5.84  28.87
H   7.85  32.51  19.82
H   1.10  30.79  14.72
H   9.63  28.33   6.96
H   7.30  23.20   0.84
H  26.82  19.06  24.32
H   6.00  13.10  31.81
H  23.14   4.27   2.77
H  31.38  28.65   8.48
H  18.11  31.90   9.14
H  16.80  29.91   5.17
H   4.71  22.67  12.93
H   5.55  11.87   5.60
H  22.67  31.64   4.25
H  30.21  20.25   3.99
H  33.33  30.86  12.18
H   1.51   3.75  10.42
H  24.71   1.95  28.81
H  31.01  11.68  28.27
H  33.24   2.28   6.02
H  27.68   1.36  28.64
H  15.58  28.25   5.71
H  11.89   1.69   4.68
H  24.07  27.98  21.99
H  26.01   3.35  29.92
H   1.84  20.06  13.76
H  28.91  12.47  31.24
H  18.65   2.78  10.05
H   1.28  18.73  13.13
H  28.05  22.03  17.57
H   6.01  22.86   3.57
H   5.59  11.87  31.44
H   8.69   9.63  21.84
H  16.99  28.50   6.65
H  21.52  22.29  26.79
H   2.92  22.08  12.29
H   7.70  21.60   0.43
H  31.87  31.91  27.77
H   5.46  11.57  30.06
H   4.97  11.61  24.97
H  27.30   4.86  27.77
H   7.42  31.31  21.91
H   1.38  24.82   5.91
H  25.02   3.76  17.72
H  12.90  25.11  32.48
H   2.90  19.66  13.91
H  14.00  11.50  17.97
H  32.04  12.25  29.21
H   0.48  21.25  15.75
H  16.87  22.94  19.04
H  25.43   2.48  30.49
H   3.43  11.82  30.10
H   4.85  13.19  31.47
H  33.07   4.14   6.16
H  28.73   7.54  12.40
H  17.30  21.20  27.30
H   4.10  25.46  10.50
H   2.51  13.39  19.81
H  30.29   7.77  13.45
H   6.76  23.02  13.05
H   1.19  18.25  28.24
H  15.64  23.87  26.08
H  14.99  32.83  20.79
H  14.28  11.04  16.90
H  23.07  11.10  28.69
H  19.82   8.02  24.84
H  18.75  28.27   6.10
H  15.09  22.11  27.51
H  19.68  33.39  16.07
H  13.61   3.27  13.59
H  13.73  32.64  22.95
H   4.15   0.65  24.63
H  16.31  16.44   2.51
H   0.33   3.19   6.31
H  11.32  32.80  26.43
H  18.54   1.12  22.61
H  15.06  32.64  12.91
H  12.29  24.38  32.89
H  18.35  28.64   4.72
H   7.62  17.09  15.30
H  31.29   4.03   7.23
H   6.10  14.12  31.45
H  13.54   2.52   6.31
H  30.88   8.65  13.58
H  15.27  11.56  17.23
H  23.35  28.31  30.98
H   7.22  21.34   2.08
H  28.67  12.14  28.55
H  13.80  25.58  31.61
H   3.02  31.82  15.26
H  22.82  14.74  27.43
H  14.76   2.18   0.31
H   6.58  12.78  30.96
H   2.58  30.75  14.83
H   8.16  20.30   2.11
H  16.43   4.66  26.98
H  31.42  20.66  16.46
H   5.37  33.28  11.87
H   7.13  31.60  20.73
H   6.67  29.81   9.02
H  28.59  12.57  29.82
H  10.82  17.51  19.53
H  21.08  13.15  20.50
H  15.67  28.68  31.06
H  16.99  19.04   9.98
H  19.13   2.02   1.92
H   3.94  24.57   9.96
H  11.26  16.96  21.69
H  23.48  12.68  28.82
H  27.07  11.69  21.25
H  15.83  10.02  16.00
H  17.31   2.98   9.71
H  26.94   9.39  24.18
H  29.89  12.43  28.86
H   5.20  29.78  23.99
H   1.13  16.58   7.40
H   8.20   2.18   2.81
H  10.28  25.49  32.23
H   4.33  11.97  29.33
H   6.62  29.32  23.46
H  22.28  12.22  26.95
H  28.98  29.96  25.43
H  25.46   8.12  16.92
H   3.50  23.53   9.45
H   5.82  19.78   0.78
H   1.30   1.28   3.58
H  12.14  26.25  32.68
H  29.79  20.74  12.43
H   2.01   3.24   9.35
H  14.24  22.03  26.91
H   8.81  16.53  20.55
H   4.97   1.10   3.21
H   9.38  11.86   3.15
H  18.59  33.17  16.04
H  17.02  24.54  27.11
H   4.62  24.82  11.58
H  11.40  23.56  32.45
H   4.51  12.91   2.58
H  30.48  12.28  27.51
H   1.97  16.75  14.93
H  24.76  22.26  33.39
H   3.30  18.87  13.32
H  16.75  29.52   7.10
H   3.84  21.33  22.04
H  31.81   3.14   6.89
H   6.18  30.41  20.88
H   5.19  14.92  30.99
H   5.05  19.70  13.71
H   1.00  29.04   3.86
H  16.55  31.83   5.14
H   2.64   3.07  24.39
H   2.96   8.20  30.06
H   4.91  32.67   9.98
H  29.05   9.98  13.81
H   3.05   3.87   9.54
H  10.99   2.59   8.29
H   9.92  28.93  15.37
H  22.05  28.58   6.83
H   2.50   1.09  15.17
H   5.72  12.54  30.46
H  32.84  22.90  30.55
H  14.50  24.74  27.37
H  25.61   1.56  28.28
H  11.96   9.26  24.37
H   0.63   0.73   5.48
H  26.75  23.04  19.77
H  32.70  21.21  11.87
H  24.59  16.43   7.82
H  22.64   1.21  30.41
H  32.45   2.07   6.62
H  26.72   0.85  27.99
H  14.77  13.31  17.61
H  27.81  13.01  21.92
H   9.31   6.54  17.62
H   4.99  22.20   1.44
H  29.59  13.56  29.11
H  10.95  26.01  30.99
H   6.28  30.72  24.27
H  25.37   1.66  24.74
H  14.43  11.72   4.28
H   4.48  21.33   7.44
H   1.22  28.34  10.69
H   4.25  23.70  10.55
H   4.36  22.34   7.90
H  24.99   0.74  29.15
H  15.41  10.95  16.07
H   4.28   8.76  18.83
H  26.53  15.00  19.81
H  25.19  23.93  16.00
H   3.05  31.33   9.50
H   5.46  12.93  32.69
H  11.22  25.01  33.07
H  23.24  11.78  27.02
H  21.70   0.92  11.55
H  22.39  15.30  15.10
H  18.60  29.52   4.16
H   9.78  16.13  20.89
H  12.45  21.86   8.50
H  12.09  26.07  31.58
H  32.39   4.51   5.47
H   1.49  17.58  14.48
H  14.27  13.59  18.66
H  15.70  22.72  26.83
H   9.33  16.54  21.90
H   6.44  25.48   1.49
H  12.33  22.88   8.91
H  18.58   2.68   8.90
H  15.89  30.39   9.25
H  15.05  24.17  28.34
H   6.01  15.43  31.51
H  19.82  12.11  27.17
H  26.58   2.32  30.96
H  22.55  12.96  27.85
H  19.21   6.25  10.33
H   0.07   7.46  16.14
H  33.08  33.22  20.52
H  27.02   3.12  30.36
H  28.36   9.17  13.98
H   6.65  23.13   1.64
H   7.80  15.47  22.50
H  32.60   3.15   6.04
H  30.07   9.51  26.43
H  27.13   1.85  29.69
H   9.08  29.29  31.58
H  31.81  26.44  12.26
H   0.97  18.28  15.21
H  31.03  16.26  14.75
H  32.47   3.44   4.47
H  30.27  23.03  27.91
H  20.04  18.72  28.84
H  29.86  10.53  28.22
H  11.54  17.30  20.58
H  15.29  23.74  27.17
H  20.29   0.48  25.32
H  15.24  22.55  29.34
H  23.04  20.63   3.00
H   1.55  18.70  25.00
H  15.13   9.19  11.57
H   3.08  16.75  15.03
H  16.08   6.02  18.82
H  10.00  29.15   0.86
H  30.92  10.29  14.15
H  11.62  14.75  32.35
H  26.95  21.11  25.63
H  23.95  13.46  26.29
H  31.52   1.26   6.24
H   6.77  21.55  31.30
H  10.37  18.34   7.77
H  24.09  13.50  28.42
H  11.43  25.29  23.84
H  23.13  17.44  25.81
H   2.64  20.17  27.27
H  22.68  10.80  27.67
H  11.70  26.20   0.15
H  24.81   2.97  28.12
H  12.89  23.67  14.49
H   3.35  18.77  15.69
H  18.67  33.03  31.76
H  31.96  32.67  19.52
H   7.34  21.64   3.12
H  30.50  29.04  22.01
H  30.70  16.84   5.22
H  21.84   7.56  20.41
H  23.66  14.49  28.68
H   6.97  22.63   2.54
H  25.74  23.33   0.47
H   6.71  16.16  17.39
H   0.22   2.10   7.14
H  20.12  17.14  17.89
H   2.61  19.85  16.53
H  17.22  23.57  27.64
H  24.65  11.46   9.87
H  33.20   2.84   5.22
H  22.20   7.11  26.50
H  11.79  24.45  20.93
H   8.91  26.25  13.25
H   6.63  30.19  22.09
H  15.25  12.82  12.10
H   2.59  31.44  17.32
H  13.38  21.90  15.51
H   4.03  23.28  11.61
H  14.08  28.98  31.34
H  32.28  30.03  28.15
H   0.23   8.36   0.05
H  21.91   9.29   6.17
H  22.08   5.16  10.16
H  29.44  17.25  18.09
H  10.75  10.11  28.04
H  10.06  16.47  19.87
H   3.21  12.42  15.74
H   1.11  18.59  14.11
H  26.98   1.11  30.61
H  29.14  22.26  17.65
H  23.51  13.60  29.42
H   4.57  14.38  31.78
H  29.78  31.67   4.00
H  30.73  20.01  17.20
H  23.15  25.58  11.33
H  32.84  20.72  30.32
H   5.17  25.12  10.50
H  13.64  22.22   8.53
H  20.69   6.84   0.58
H   6.28  23.33  11.98
H  28.42  11.16  29.12
H  28.83  14.43  32.76
H   3.06   9.31  30.81
H  24.16   2.99  28.95
H   9.10   2.96  14.05
H  17.08   2.40  23.64
H  10.79  26.07  33.21
H  16.51   9.38   2.89
H   3.07  10.03   8.96
H  30.91  25.72  27.43
H   0.87  28.85  22.67
H   4.72  23.71  12.83
H   3.62  12.66  28.73
H  17.79  16.86   5.07
H  16.84  27.51   5.85
H  20.66  19.63  18.22
H   5.59  24.40  11.97
H  32.95  16.90   7.62
H   6.28  22.06  12.76
H  18.49  27.67   5.16
H   7.48  15.48  16.53
H  14.05  23.75  27.73
H  22.64  13.87  26.86
H  28.15   8.90  15.07
H  29.39   9.45  14.68
H  14.95  11.99  16.28
H  13.91  12.20  16.15
H  28.10   7.04  14.34
H   6.14  22.76   0.66
H  32.87   1.25   5.41
H   6.29  21.15   2.51
H   9.84  17.57  20.13
H  27.54   2.64  19.36
H  11.49  25.78   1.83
H  27.76  10.85  21.68
H   2.18  18.80  14.04
H  13.06   9.46  21.59
H  27.58  16.12  26.38
H  16.72  12.25  33.15
H   0.02   4.57  29.81
H   6.61  20.56   3.38
H  10.63  26.57  23.14
H  11.48   5.71   4.42
H  13.47  28.81  18.27
H  30.57  10.82  27.52
H  28.68   1.54   8.45
H   0.36   6.99  27.28
H  32.38  30.71  31.26
H  17.48  27.53   5.00
H  12.33  25.83   0.90
H   3.66  17.68  14.73
H   6.65  12.73  29.71
H  26.63   0.90  29.64
H  25.45  26.86  18.78
H   5.81  22.91  13.37
H  29.95  28.13  21.46
H  11.44  16.78  27.83
H  27.40  14.77  20.28
H  10.53  24.92   0.45
H  23.09   7.65   6.92
H   4.15  19.13  14.01
H   0.13   3.80   7.68
  864
  Step: 90
H  15.82  20.02  23.85
H   6.60  24.39  11.57
H   6.30  19.63   2.48
H  19.23  18.86  32.98
H  17.12  32.15  16.10
H  31.67   2.12   7.32
H  10.98  14.29  22.39
H   9.45  31.68  32.93
H  23.07  12.87  26.78
H   3.13  18.78  14.53
H  29.33  13.31  30.19
H  27.49   6.83  27.46
H  11.38  24.20  32.41
H  24.86   4.27  22.64
H  21.69  13.44  26.40
H  12.50  23.81  22.88
H  16.33  28.60  28.73
H  18.25  15.43  18.98
H  26.39   3.54  12.45
H  19.90  25.43   2.47
H  26.39   0.80  26.91
H  30.00   9.43  13.71
H  29.49  11.95  26.93
H  31.58  15.29  20.51
H  10.85   1.59  30.16
H  15.03  21.99  18.09
H   2.62   2.89  14.40
H  27.65   1.86  27.98
H  16.13  27.70   4.98
H  17.66  11.01  23.61
H   7.49  22.20   4.13
H   2.06  18.56  15.33
H  21.24  23.45  19.11
H   8.52  17.55  20.26
H  28.30  10.12  14.68
H  11.05  18.00  21.63
H  22.81  10.85  27.09
H  10.01   0.92   7.86
H  29.49  31.14  17.74
H  29.71   7.20  12.64
H  29.22   7.25  14.07
H  27.13   3.11   6.17
H   2.51   5.31   8.00
H  24.07  20.70  13.70
H  28.77  24.43  32.62
H  16.45  11.38  18.81
H   3.64  24.64  11.12
H  27.21   0.54  19.90
H   9.03  17.85  19.27
H  16.79  22.84  26.28
H  13.27  24.65   0.19
H  20.60   0.75  11.83
H  32.53   1.97   8.01
H   7.02  23.83   2.41
H  14.14  26.35  19.58
H  23.18   8.85  13.03
H  24.79  19.75  29.50
H   0.95  19.59  13.70
H  21.04  18.12   5.96
H  28.00   7.45  13.32
H  30.96  13.69  27.36
H   1.73  19.71  14.85
H  31.38  24.59  14.89
H  30.46  11.51  29.63
H  13.72  10.42  17.67
H  18.19  19.43  11.09
H   5.83  17.27  16.63
H  14.51  13.43  31.39
H  10.87   7.58  17.90
H  11.48  27.16  32.68
H  32.17  25.97  31.70
H   2.13  18.61  16.34
H  17.35  33.03  13.58
H   5.97  14.77  30.05
H   5.20  22.27  32.16
H  25.09   3.52  29.04
H  20.76  13.76  26.78
H  10.63  28.82  28.21
H  26.10   3.51  28.42
H  11.82  24.87   2.07
H   5.43  12.40  29.26
H   1.43  19.18  15.82
H  29.37  10.23  15.43
H  20.19   5.89  12.16
H   7.18  31.09   9.79
H  17.05  26.40   6.17
H  15.94  22.61  25.55
H  21.91  30.31  18.74
H  16.28  11.57  16.32
H  11.58  24.94   1.00
H  19.31  19.92  20.67
H  21.47  21.23  12.99
H  30.65  23.67  16.16
H  17.90  28.98   6.91
H   5.32  20.71   2.43
H  11.90  25.37  32.29
H  22.70  13.70  25.84
H  18.95  13.09   6.81
H   9.00  18.08  21.91
H  16.93  30.42   7.65
H  22.02  28.44  32.77
H  26.84   2.89  29.17
H  10.64  32.52   2.50
H  10.31   6.56  18.16
H   6.68  24.80  12.56
H  31.81   3.26   5.27
H  23.57  12.02  10.67
H  30.23  12.48  26.38
H   5.52  22.44  12.16
H  15.08  10.40  17.12
H  16.04  21.52  27.78
H  27.76   0.76  28.56
H  32.60   2.18   4.50
H  30.86  12.52  29.47
H  11.07  26.29  32.06
H  13.62  10.77  18.85
H   4.02  13.70  30.81
H  12.51   5.02  11.72
H  10.62   7.87  19.15
H  22.58   5.99  10.26
H   3.79  24.41  12.18
H  10.97  24.87  31.63
H  23.69  15.23  27.76
H  16.38  23.67  26.95
H  16.20  11.24  15.29
H  26.66   4.52   2.44
H  10.64  27.46  13.67
H   9.38  17.50  21.12
H   5.90   3.76  27.04
H   9.45  10.96   1.29
H  31.36  30.77   0.32
H   2.93  22.31  33.18
H  14.83  22.73  26.25
H  24.46  24.03  29.76
H   5.11  24.28   9.74
H   5.95  30.53   9.73
H   5.62  13.40  29.60
H  20.38   7.53   1.84
H  10.74   7.16  32.50
H  18.29   0.77  23.50
H  27.40   3.18   1.63
H  16.24   7.17  28.36
H  32.56  26.25  16.87
H  29.63  10.82  29.38
H  19.57  28.48   4.92
H  22.41   8.08  30.30
H   3.35  12.83  30.95
H  32.63  27.73  29.74
H   2.05  17.95  13.37
H  28.97   6.57  13.28
H   2.97  17.76  15.61
H  31.44   7.52  26.66
H  25.80   1.79  29.69
H  16.12  24.30  27.81
H  10.31  31.65  28.90
H  17.67  28.56   5.69
H  26.77   1.86  28.75
H  17.14  22.30  28.00
H  26.90   4.02  29.19
H  13.01  17.94   2.45
H   5.41  13.74  30.65
H  29.85  11.54  27.94
H   3.28  23.30   0.17
H   2.79  20.36   6.38
H  18.32  26.62   6.79
H   7.43  19.41   1.87
H  23.40  19.51   2.52
H   8.57   5.32  28.51
H  12.38  25.40  33.34
H   7.88  20.53   3.28
H   3.93  16.53  29.97
H  10.44  17.46  19.05
H   8.61   1.29  18.91
H  10.37  17.03  20.79
H  33.04  11.73  31.71
H  29.52  24.72  19.99
H  14.95  11.45  18.63
H  17.25   6.61   0.62
H   9.21  23.45   8.14
H   9.13  29.42  29.39
H  23.85  28.72   3.74
H  10.97  16.22  20.90
H   0.86  17.58  13.62
H   3.59  19.84  14.70
H  23.56   7.91  30.23
H  15.50  22.72  19.09
H   6.53  22.30  13.88
H  28.09  24.47  23.44
H  31.55  13.38  29.23
H  16.93   3.54  31.21
H  14.57  10.81  14.47
H  23.14  32.43  24.19
H  29.82  31.28  15.21
H   4.48  10.28  20.70
H   4.87  10.09  17.98
H   5.43  31.41   7.07
H   8.60  24.67   9.85
H  17.91  27.77   6.42
H  20.77   4.04   0.20
H  15.32  21.58  26.46
H   4.80  22.48  11.26
H  15.37   7.69  32.66
H  12.04  11.49   7.08
H  12.64  17.75   3.50
H   7.28  32.85   3.19
H   9.02  18.43  20.79
H  25.12  24.93   9.68
H   6.67  20.12   1.52
H   4.64  12.27  28.38
H   6.36  21.76  25.35
H   8.64  17.46  17.47
H   1.00  31.81   5.86
H  16.14   1.56   3.81
H  22.40  12.64  28.95
H  14.83  23.07  27.98
H  14.11  23.10  26.90
H  17.37  26.99  33.16
H  33.31   1.33   6.46
H  20.98  10.80   2.86
H   9.88  18.42  21.53
H  21.78  13.86  27.41
H  26.25   5.28  27.43
H  11.70   9.32  32.15
H  28.28  19.32   0.88
H   1.41   2.46   7.85
H  10.11  17.32  21.76
H   6.63  20.84   0.62
H  20.66  12.92  26.10
H  32.02   4.00   6.28
H  23.85  12.28  26.25
H  21.64  33.15  23.73
H  14.67  10.46  18.27
H  30.22   8.98  12.66
H  20.23   1.51   2.22
H  29.39  12.47  27.85
H   6.00  17.87  13.43
H   3.21  11.03   4.38
H  27.09   7.89  17.83
H  13.55  30.04   0.61
H  16.61   3.03   8.98
H   6.14  25.60  10.66
H  31.21  12.74  28.30
H  12.09   7.86  18.68
H  10.62  17.99  22.77
H   8.53   2.18  13.54
H  16.73  26.80  29.98
H   2.75  15.35   5.32
H   4.09  17.62  15.66
H   3.93   6.92   3.99
H   7.06  23.81  12.41
H  29.11  26.63  20.76
H  19.45  12.14  23.43
H  26.97  13.34   2.68
H  31.26   2.52   6.19
H  14.47  15.38  16.66
H   0.04   6.17  32.48
H  13.43   1.62  11.68
H  15.45   5.85  15.12
H  10.90  25.88   0.88
H  16.72  26.71   5.05
H   4.66  31.79  10.84
H  25.63   0.64  29.31
H   2.52  17.09  33.39
H   7.23  25.08  10.79
H  14.75  13.06  16.60
H  10.22  18.99   9.04
H  16.30  20.82  26.99
H  15.78   4.42  10.84
H  22.67  20.42   5.05
H  28.27  29.00  26.64
H   3.45  33.19  23.91
H   5.09  23.43  11.91
H   7.67  25.45  19.52
H   9.92  18.73  20.38
H  16.37  22.96  27.72
H  31.79   3.47  27.09
H   7.02   0.66  21.67
H  21.97  18.10   0.29
H  11.01  27.67  25.82
H   7.30  13.95  31.13
H  30.83   9.16  14.66
H  29.57   8.48  13.75
H  31.05  31.16  15.01
H   0.55   3.75   5.49
H   9.17  19.41  28.48
H   7.62  22.22   1.40
H   1.55  16.28  12.52
H  18.13  29.76   5.13
H  16.99  29.48   6.09
H  29.26   9.18  13.08
H  26.60   1.81  27.58
H  15.75  10.76  19.42
H  32.30   3.22   7.79
H  32.64   4.87  29.38
H   7.47  24.14  18.63
H   3.71  12.99  29.84
H  14.90   7.31  31.40
H  16.46  21.98  26.85
H   1.95  29.84  22.17
H  15.62  10.89  18.06
H  16.47  32.77   4.04
H  10.34  20.39  11.94
H   2.45  20.51  14.87
H  29.75   9.97  12.23
H  32.27   4.91   3.89
H   4.52  13.61  29.14
H  32.51   1.09   7.17
H  30.52  29.21   2.47
H  20.90  20.47  25.92
H   7.61  20.76   1.23
H  17.10  30.51   6.15
H  22.80  28.73   7.55
H  29.20  28.64   7.41
H  31.70   6.72  21.18
H  14.65   9.89  19.12
H  16.32  27.91   7.33
H  31.66  11.58  12.69
H   1.69   9.23  31.07
H  27.58   0.34  29.52
H  21.74  14.48  26.28
H   4.72  13.08  30.22
H  11.02  18.17  20.32
H   6.29  22.12   1.72
H  17.48  29.19   4.50
H  32.64  10.53  18.13
H  11.33   7.48   7.01
H  28.37  20.69   6.10
H  10.04  25.22  10.09
H   6.24   9.25  32.04
H  13.90   9.80  16.72
H  15.91  22.86  30.00
H  21.10  20.95  24.88
H  31.34  17.63   4.58
H  12.65  26.70  33.42
H  22.27  13.08  15.57
H  29.27  20.00   4.11
H  31.59  17.95  22.69
H  17.62  28.09   7.53
H  23.85  18.02  25.18
H   1.46  10.01  30.49
H   6.45  13.78  30.35
H  30.28  31.97  23.99
H  12.38  25.83   2.42
H  31.83  13.56   1.75
H  15.94  20.57  14.70
H   7.74  16.66  20.66
H  11.98  23.90   1.19
H   8.12   9.10  14.79
H  30.20  28.67   6.96
H  22.74  12.59  25.74
H  11.80   4.19   8.86
H  31.03   9.67  13.24
H  10.36  24.10  32.92
H  31.17  10.53  28.45
H  29.73   8.94  22.60
H  31.37  12.47  22.83
H   4.35  12.17  30.79
H  16.96  32.17   7.05
H  19.16  29.39   5.45
H  21.10  19.65   9.00
H  19.49  22.47  29.67
H  24.73   1.56  29.94
H   4.67  25.70   9.63
H   2.68  19.49  15.21
H   8.02  22.34   2.59
H  10.30   5.79  27.81
H  16.49  12.21  14.59
H   2.87  17.68  22.61
H  32.12   2.06   5.60
H  22.95  13.82  28.44
H  26.89   2.85  28.16
H  29.84  12.45  29.92
H   9.20  33.39  20.53
H   8.13   0.01  27.69
H  10.25  13.06  21.89
H   7.62  29.52  29.53
H  12.10  26.94   0.89
H   1.15   8.49   6.17
H  30.43   7.54  32.50
H  12.93  10.45   0.18
H  15.73  22.41  28.38
H  27.41   3.22  21.83
H   3.21   2.26  11.67
H   3.35  21.94  14.07
H  12.85  24.84   1.10
H   8.37  17.53  21.34
H  14.44  12.34  17.45
H   1.88  17.56  15.87
H  21.32  12.76  27.08
H  17.01  19.97  23.66
H  16.02   3.77  23.02
H  32.89  19.58  10.19
H   0.69   6.48  11.30
H  24.96   7.68  11.46
H   5.12  25.43   6.48
H  16.95  18.72  10.62
H  29.88  10.61  13.34
H  31.97  13.76  20.61
H  30.95   7.20  14.23
H  13.77  17.33  21.30
H  13.19  26.20  32.47
H  16.07  28.92   6.41
H  16.16  10.75  17.03
H  15.41  13.69  17.34
H  26.45  10.08   7.08
H   4.91  22.96  32.93
H  23.54   9.81  30.21
H  19.96  30.67  31.62
H  30.37   8.09  14.58
H  20.66   3.48   2.86
H  16.05  12.62  15.93
H  25.96   1.27  30.60
H  15.15  21.49   4.38
H   8.30  16.20  21.51
H  11.34   6.77  17.15
H   4.81  16.62  17.34
H  11.92  29.85  29.92
H  23.37   0.51  26.63
H  22.94   4.21  17.55
H  28.37   0.71   9.87
H   0.52  10.09   1.46
H   0.09  15.58  23.66
H  23.46  26.79  20.77
H  23.66  14.07  27.55
H  28.79   6.32  12.23
H   0.22   1.91   5.03
H  20.08  13.06   1.13
H  28.42   8.44  13.04
H   5.09  21.84   2.46
H  28.42   0.12   8.80
H   7.42  13.42   5.91
H   4.69   0.85   5.14
H  15.31  20.93  27.42
H  16.66  28.62   5.35
H  20.10  26.93  10.89
H   9.49   2.95  31.50
H  11.66  24.23   0.17
H   3.07  23.76  10.78
H  25.90   2.60  28.85
H  18.32  29.55   6.14
H   5.91  24.02  12.92
H   2.74  13.30   2.72
H   7.10  20.41   2.49
H   0.30   3.08   4.34
H   9.79  26.25  23.15
H   6.11  21.93   3.20
H  29.28  11.77  29.45
H   2.92  12.59  15.87
H  12.69   7.86  31.36
H  18.74  18.45  10.34
H  21.74  12.12  27.96
H  17.38  19.93  28.34
H   5.84  20.82   1.46
H  28.43   8.04  14.40
H  18.34  27.97  24.70
H  15.71  12.66  17.15
H   9.07  16.23  19.42
H  10.47  15.86  21.76
H  16.37  11.78  17.80
H  33.36  21.39  19.22
H  23.36  13.07  11.72
H  23.69  13.01  25.32
H  30.94   3.61   6.32
H   4.42  18.54  14.90
H  31.76  18.84   0.07
H  29.93  10.32  14.48
H   8.17  17.17  19.36
H  32.71  17.08  12.36
H  24.49   8.73  27.83
H   7.06  17.05  16.62
H  13.39  12.11  17.21
H   3.67  30.75  28.96
H  25.26  20.77  14.22
H   5.64  24.13  10.97
H  30.18  13.22  28.04
H  17.53  22.34  27.02
H  32.79  12.09  27.80
H   5.86  22.75   2.51
H   4.72  14.44  29.83
H  24.48  14.64  26.96
H   7.42  30.70  28.36
H  29.36   8.71  12.11
H  19.31  30.69  25.68
H  32.03  11.39  28.45
H  26.76   0.20  28.82
H  18.05  26.83   5.69
H  12.87  28.28  30.48
H  23.69  12.65  27.74
H  17.59  27.21  28.18
H  28.58  16.97  15.58
H   5.32  23.11  10.48
H   1.21  10.97  17.08
H  29.30  27.84  11.40
H   2.47  17.79  14.58
H  25.02   2.68  29.60
H  30.64  11.41  26.54
H   3.87  13.58  31.91
H  22.81  11.98  28.00
H  23.26  28.17  14.66
H   5.54  21.50   0.53
H  30.85   3.43  23.96
H  16.62  17.34  29.37
H  19.98   1.72   5.43
H   7.53   5.18  28.97
H   3.54   1.30  21.95
H   6.00  13.10  31.81
H  31.14   6.18  22.88
H  20.43   9.75  22.44
H   8.77  20.92   7.62
H  10.17  18.93  26.94
H  19.68  18.65  14.77
H  22.97  18.68   3.60
H  12.74  15.44   6.42
H  12.62  13.45  10.43
H  33.33  30.86  12.18
H  29.46  23.50  18.43
H  24.71   1.95  28.81
H  31.01  11.68  28.27
H  33.24   2.28   6.02
H  16.46  33.33  32.35
H  10.88  26.11   4.45
H   1.54  25.78  28.12
H  32.48   8.28  32.58
H  26.01   3.35  29.92
H   1.84  20.06  13.76
H  11.38   0.25  26.61
H  23.53  23.43  13.87
H   1.28  18.73  13.13
H  12.31   6.48  16.66
H   6.01  22.86   3.57
H   5.59  11.87  31.44
H  13.19  27.00   1.39
H  16.99  28.50   6.65
H   0.14   6.05  28.63
H  30.94  17.44  14.71
H   8.52   5.41  27.07
H  12.40  28.68   3.41
H   5.46  11.57  30.06
H  32.46  32.18  33.37
H   9.84   6.44  28.76
H  20.40   5.87  15.19
H  15.01  12.33  15.28
H   0.44   6.96  27.51
H  12.90  25.11  32.48
H   2.90  19.66  13.91
H  14.00  11.50  17.97
H  32.04  12.25  29.21
H  12.47   9.57  32.86
H  10.18   9.49  23.78
H  25.43   2.48  30.49
H   3.43  11.82  30.10
H   4.85  13.19  31.47
H  33.07   4.14   6.16
H  28.73   7.54  12.40
H  17.30  21.20  27.30
H   4.10  25.46  10.50
H  20.50  16.66  10.90
H  30.29   7.77  13.45
H   6.76  23.02  13.05
H   1.19  18.25  28.24
H  15.64  23.87  26.08
H  10.23  20.77   7.26
H  14.28  11.04  16.90
H  22.88  25.31   2.22
H  12.20  27.18   1.93
H  18.75  28.27   6.10
H  15.09  22.11  27.51
H  29.46  23.12  16.58
H  18.89   1.98   9.02
H  17.20   4.84  15.81
H  16.29  21.21  25.97
H  32.84  10.83  12.77
H   0.33   3.19   6.31
H   3.41  16.65  14.06
H  28.31  24.80  26.92
H  18.81  22.53  15.55
H  12.29  24.38  32.89
H  18.35  28.64   4.72
H   7.62  17.09  15.30
H  27.14   0.81   0.41
H   6.10  14.12  31.45
H  21.10  33.14  11.48
H  30.88   8.65  13.58
H  15.27  11.56  17.23
H   3.70  22.84  32.73
H   7.22  21.34   2.08
H  28.67  12.14  28.55
H   3.24   4.66  13.87
H   1.80   4.73  10.49
H  22.82  14.74  27.43
H  23.85  20.45  28.03
H   6.58  12.78  30.96
H  16.61   3.19  11.11
H   8.16  20.30   2.11
H  10.48  13.93  23.87
H  11.76  25.35  27.40
H  27.93  18.97  24.14
H  29.50  11.30   2.10
H   1.48  22.26  25.80
H  28.59  12.57  29.82
H   2.40  16.62  18.16
H   2.63  16.98   8.70
H  19.21   4.24  17.08
H  26.92  32.46   9.50
H  31.75  25.07   3.47
H   3.94  24.57   9.96
H  11.26  16.96  21.69
H  23.48  12.68  28.82
H   2.64  23.44  32.77
H   0.80   6.24   3.06
H   0.52   9.77  33.48
H  26.94   9.39  24.18
H  29.89  12.43  28.86
H  27.74   0.52  15.27
H   7.27  31.32   2.72
H   8.25  15.40  19.91
H  18.06   3.20  16.40
H   4.33  11.97  29.33
H   7.67  16.94  17.72
H  22.28  12.22  26.95
H   3.38  20.56   7.36
H  25.46   8.12  16.92
H   0.82  30.69  29.21
H   2.83   2.82  15.42
H  19.02  21.80  16.63
H  12.14  26.25  32.68
H   2.11  15.36  20.99
H   0.73   2.00   5.99
H  14.24  22.03  26.91
H   8.81  16.53  20.55
H   4.97   1.10   3.21
H  10.64   0.20  25.34
H   6.71  28.50  15.60
H  17.02  24.54  27.11
H   4.62  24.82  11.58
H   6.08  22.79  31.73
H  28.19  10.61  13.33
H  30.48  12.28  27.51
H   1.97  16.75  14.93
H  16.16  25.55  30.81
H   3.30  18.87  13.32
H  16.75  29.52   7.10
H   4.16  21.69  32.10
H  31.81   3.14   6.89
H  25.44  32.62  28.54
H   5.19  14.92  30.99
H  30.53  13.67  30.02
H   1.00  29.04   3.86
H  16.55  31.83   5.14
H   2.64   3.07  24.39
H   4.20  21.96  33.28
H   3.24  19.98   3.47
H  29.05   9.98  13.81
H  14.25  29.59  20.65
H   7.57   9.32   5.22
H  31.12  25.56  31.27
H  22.05  28.58   6.83
H   8.71  13.75   2.20
H   5.72  12.54  30.46
H  22.69  20.81  27.87
H   4.18  23.73   9.30
H  25.61   1.56  28.28
H  11.96   9.26  24.37
H   2.73  13.14  30.21
H  32.67  25.03   1.05
H  18.66   3.06  11.57
H   5.58  33.27  19.76
H  30.07  20.31   0.22
H  32.45   2.07   6.62
H  26.72   0.85  27.99
H  13.21  25.44   6.04
H  23.62  23.94  11.52
H   9.31   6.54  17.62
H  11.46  19.54  12.34
H  29.59  13.56  29.11
H  15.23  23.80  18.11
H  28.93  24.95   9.62
H   5.00  22.70   3.31
H  30.21   7.83  22.64
H   0.95   2.67   5.07
H   1.22  28.34  10.69
H   4.25  23.70  10.55
H   0.06  10.42   6.77
H   5.16  22.68   1.60
H  15.41  10.95  16.07
H  25.09  30.62   4.88
H  12.23   0.07  22.66
H   3.79   8.74  29.03
H   3.05  31.33   9.50
H   5.46  12.93  32.69
H  11.22  25.01  33.07
H  23.24  11.78  27.02
H  18.94  29.91  23.62
H  21.88  29.32   5.43
H   6.34  24.57  10.08
H   9.78  16.13  20.89
H  16.55  23.61  30.77
H  20.96   3.94  32.03
H  32.39   4.51   5.47
H   1.49  17.58  14.48
H  28.00   3.92   9.78
H  15.70  22.72  26.83
H   9.33  16.54  21.90
H  28.74  20.75  30.46
H  17.88  23.51  26.83
H   0.56   6.22  31.35
H  30.99   4.51   5.31
H  15.05  24.17  28.34
H  14.30   7.86  28.28
H  27.66   2.88  18.40
H  26.58   2.32  30.96
H  22.55  12.96  27.85
H  28.29  16.76   5.03
H  13.46  13.88  31.47
H  31.23  14.64   8.87
H  18.83  28.63  11.56
H  28.36   9.17  13.98
H   6.65  23.13   1.64
H  12.25  20.62  28.96
H  32.60   3.15   6.04
H  17.03  27.22   6.95
H  27.13   1.85  29.69
H   9.08  29.29  31.58
H  29.41  14.42  29.76
H   0.97  18.28  15.21
H  12.85   4.29   6.53
H  20.79  28.81   4.64
H  28.46   7.87  17.55
H  29.84  27.85  17.85
H  29.86  10.53  28.22
H  11.54  17.30  20.58
H  15.29  23.74  27.17
H   3.94  26.09  25.27
H   6.25  32.71  11.33
H  22.04   9.45  11.59
H   9.04  25.41  25.44
H  10.94   3.99   0.18
H   3.08  16.75  15.03
H  23.50  24.47   2.05
H  16.03  23.27   8.44
H  30.92  10.29  14.15
H  16.61  29.13  22.90
H  20.92   4.07  19.10
H  23.95  13.46  26.29
H  31.52   1.26   6.24
H  25.41  21.39  30.31
H  16.36  17.83   6.49
H  24.09  13.50  28.42
H   2.32   1.11  24.23
H  25.72  22.16  31.46
H   5.67  22.84  25.68
H  28.46  25.13   8.54
H  11.70  26.20   0.15
H  24.81   2.97  28.12
H  10.05   1.82  10.77
H   3.35  18.77  15.69
H  18.67  33.03  31.76
H  31.96  32.67  19.52
H   7.34  21.64   3.12
H  23.03   7.68  32.48
H   3.87   1.45   6.74
H   7.23  21.14   4.21
H  23.66  14.49  28.68
H   6.97  22.63   2.54
H  25.75   5.59  24.05
H  27.40  22.35  31.21
H   0.22   2.10   7.14
H  23.03  14.64  26.21
H  31.31  14.62  30.78
H  17.22  23.57  27.64
H  24.65  11.46   9.87
H  33.20   2.84   5.22
H  19.86   4.25   4.13
H  28.32   1.23  29.78
H  22.10   4.19  10.68
H   6.63  30.19  22.09
H   4.82  15.46  14.67
H   8.69  20.77   8.74
H  27.73   3.30  20.86
H   4.03  23.28  11.61
H  11.42  32.35   4.50
H  25.21   1.77  32.34
H  14.65   2.37  32.74
H  12.84  22.26  14.47
H   7.10  23.29   3.62
H  12.81  11.48  18.75
H  15.23  23.54  17.07
H  10.06  16.47  19.87
H  19.96   2.38   7.41
H   1.11  18.59  14.11
H  26.98   1.11  30.61
H   2.67  18.69   4.11
H   1.50  15.13  24.40
H   4.57  14.38  31.78
H  15.33  14.30  28.34
H  14.11  24.01  18.92
H  18.09   0.23   8.91
H  15.91  12.38  18.64
H   5.17  25.12  10.50
H   8.53  24.54   4.39
H  20.69   6.84   0.58
H   6.28  23.33  11.98
H  28.42  11.16  29.12
H   6.82  22.10  11.11
H   3.06   9.31  30.81
H  24.16   2.99  28.95
H  17.07   0.15  28.25
H  18.72  24.95   2.17
H  10.79  26.07  33.21
H  29.20  21.35   2.36
H  24.98  17.24  28.95
H  32.96  10.43  19.07
H  17.56  21.42  26.29
H   4.72  23.71  12.83
H   3.62  12.66  28.73
H   2.73  27.48  13.59
H  16.84  27.51   5.85
H  14.79   7.69  13.15
H   5.59  24.40  11.97
H   8.58  20.01  25.62
H   5.30  20.68   4.62
H  18.49  27.67   5.16
H   4.00  13.36   2.89
H  16.37  23.80   9.64
H  22.64  13.87  26.86
H  28.15   8.90  15.07
H  29.39   9.45  14.68
H  14.95  11.99  16.28
H  13.91  12.20  16.15
H   8.10  27.96   5.61
H  15.84  27.07   5.83
H  32.87   1.25   5.41
H   6.29  21.15   2.51
H   9.84  17.57  20.13
H  15.31  11.57  24.67
H  13.96  24.76   1.12
H  20.13  11.25   4.35
H   2.18  18.80  14.04
H  17.30   8.34   1.65
H  17.02  18.79  11.72
H  30.88  33.38   7.31
H  30.04  24.39   5.45
H   6.61  20.56   3.38
H  18.79   9.87  20.94
H  30.54   1.23  26.63
H  13.47  28.81  18.27
H  30.57  10.82  27.52
H  17.95  22.27  20.49
H  18.66  14.80  13.99
H   4.01  15.42  15.31
H  17.48  27.53   5.00
H  12.33  25.83   0.90
H   3.66  17.68  14.73
H   6.65  12.73  29.71
H  26.63   0.90  29.64
H   7.93  16.37  16.82
H   5.81  22.91  13.37
H  29.95  28.13  21.46
H  33.23   9.07   4.07
H   3.52  19.78  15.88
H  10.53  24.92   0.45
H  18.29  19.31  27.95
H   9.34  17.22  22.67
H  27.53  14.17  19.43
