100
 generated by VMD
 H        30.000000       30.000000       30.000000
 H        27.250000       27.250000       30.000000
 H        27.250000       30.000000       27.250000
 H        27.250000       30.000000       32.750000
 H        27.250000       32.750000       30.000000
 H        30.000000       27.250000       27.250000
 H        30.000000       27.250000       32.750000
 H        30.000000       32.750000       27.250000
 H        30.000000       32.750000       32.750000
 H        32.750000       27.250000       30.000000
 H        32.750000       30.000000       27.250000
 H        32.750000       30.000000       32.750000
 H        32.750000       32.750000       30.000000
 H        24.500000       30.000000       30.000000
 H        30.000000       24.500000       30.000000
 H        30.000000       30.000000       24.500000
 H        30.000000       30.000000       35.500000
 H        30.000000       35.500000       30.000000
 H        35.500000       30.000000       30.000000
 H        24.500000       27.250000       27.250000
 H        24.500000       27.250000       32.750000
 H        24.500000       32.750000       27.250000
 H        24.500000       32.750000       32.750000
 H        27.250000       24.500000       27.250000
 H        27.250000       24.500000       32.750000
 H        27.250000       27.250000       24.500000
 H        27.250000       27.250000       35.500000
 H        27.250000       32.750000       24.500000
 H        27.250000       32.750000       35.500000
 H        27.250000       35.500000       27.250000
 H        27.250000       35.500000       32.750000
 H        32.750000       24.500000       27.250000
 H        32.750000       24.500000       32.750000
 H        32.750000       27.250000       24.500000
 H        32.750000       27.250000       35.500000
 H        32.750000       32.750000       24.500000
 H        32.750000       32.750000       35.500000
 H        32.750000       35.500000       27.250000
 H        32.750000       35.500000       32.750000
 H        35.500000       27.250000       27.250000
 H        35.500000       27.250000       32.750000
 H        35.500000       32.750000       27.250000
 H        35.500000       32.750000       32.750000
 H        24.500000       24.500000       30.000000
 H        24.500000       30.000000       24.500000
 H        24.500000       30.000000       35.500000
 H        24.500000       35.500000       30.000000
 H        30.000000       24.500000       24.500000
 H        30.000000       24.500000       35.500000
 H        30.000000       35.500000       24.500000
 H        30.000000       35.500000       35.500000
 H        35.500000       24.500000       30.000000
 H        35.500000       30.000000       24.500000
 H        35.500000       30.000000       35.500000
 H        35.500000       35.500000       30.000000
 O        27.250000       30.000000       30.000000
 O        30.000000       27.250000       30.000000
 O        30.000000       30.000000       27.250000
 O        30.000000       30.000000       32.750000
 O        30.000000       32.750000       30.000000
 O        32.750000       30.000000       30.000000
 O        27.250000       27.250000       27.250000
 O        27.250000       27.250000       32.750000
 O        27.250000       32.750000       27.250000
 O        27.250000       32.750000       32.750000
 O        32.750000       27.250000       27.250000
 O        12.900000        7.590000        8.580000
 O        32.750000       32.750000       27.250000
 O        32.750000       32.750000       32.750000
 O        24.500000       27.250000       30.000000
 O        24.500000       30.000000       27.250000
 O        24.500000       30.000000       32.750000
 O        24.500000       32.750000       30.000000
 O        27.250000       24.500000       30.000000
 O        27.250000       30.000000       24.500000
 O        27.250000       30.000000       35.500000
 O        27.250000       35.500000       30.000000
 O        29.770000       21.370001       27.719999
 O        30.000000       24.500000       32.750000
 O        30.000000       27.250000       24.500000
 O        30.000000       27.250000       35.500000
 O        30.000000       32.750000       24.500000
 O        30.000000       32.750000       35.500000
 O         5.760000       52.200001       59.410000
 O        30.000000       35.500000       32.750000
 O        32.750000       24.500000       30.000000
 O        32.750000       30.000000       24.500000
 O        32.750000       30.000000       35.500000
 O        32.750000       35.500000       30.000000
 O        35.500000       27.250000       30.000000
 O        35.500000       30.000000       27.250000
 O        35.500000       30.000000       32.750000
 O        35.500000       32.750000       30.000000
 O        19.969999       29.770000       32.160000
 O        24.500000       24.500000       27.250000
 O        24.500000       24.500000       32.750000
 O        24.500000       27.250000       24.500000
 O        24.500000       27.250000       35.500000
 O        24.500000       32.750000       24.500000
 O        24.500000       32.750000       35.500000
