512
H Spherical Lattice with Extra Atoms
H 65.000 65.000 65.000
H 61.200 65.000 65.000
H 65.000 61.200 65.000
H 65.000 65.000 61.200
H 65.000 65.000 68.800
H 65.000 68.800 65.000
H 68.800 65.000 65.000
H 61.200 61.200 65.000
H 61.200 65.000 61.200
H 65.000 61.200 61.200
H 61.200 65.000 68.800
H 61.200 68.800 65.000
H 65.000 61.200 68.800
H 65.000 68.800 61.200
H 68.800 61.200 65.000
H 68.800 65.000 61.200
H 65.000 68.800 68.800
H 68.800 65.000 68.800
H 68.800 68.800 65.000
H 61.200 61.200 61.200
H 61.200 61.200 68.800
H 61.200 68.800 61.200
H 68.800 61.200 61.200
H 61.200 68.800 68.800
H 68.800 61.200 68.800
H 68.800 68.800 61.200
H 68.800 68.800 68.800
H 65.000 65.000 72.600
H 65.000 72.600 65.000
H 72.600 65.000 65.000
H 57.400 65.000 65.000
H 65.000 57.400 65.000
H 65.000 65.000 57.400
H 61.200 65.000 72.600
H 61.200 72.600 65.000
H 65.000 61.200 72.600
H 65.000 72.600 61.200
H 72.600 61.200 65.000
H 72.600 65.000 61.200
H 65.000 68.800 72.600
H 65.000 72.600 68.800
H 68.800 65.000 72.600
H 68.800 72.600 65.000
H 72.600 65.000 68.800
H 72.600 68.800 65.000
H 57.400 61.200 65.000
H 57.400 65.000 61.200
H 61.200 57.400 65.000
H 61.200 65.000 57.400
H 65.000 57.400 61.200
H 65.000 61.200 57.400
H 57.400 65.000 68.800
H 57.400 68.800 65.000
H 65.000 57.400 68.800
H 65.000 68.800 57.400
H 68.800 57.400 65.000
H 68.800 65.000 57.400
H 61.200 61.200 72.600
H 61.200 72.600 61.200
H 72.600 61.200 61.200
H 61.200 68.800 72.600
H 61.200 72.600 68.800
H 68.800 61.200 72.600
H 68.800 72.600 61.200
H 72.600 61.200 68.800
H 72.600 68.800 61.200
H 57.400 61.200 61.200
H 61.200 57.400 61.200
H 61.200 61.200 57.400
H 68.800 68.800 72.600
H 68.800 72.600 68.800
H 72.600 68.800 68.800
H 57.400 61.200 68.800
H 57.400 68.800 61.200
H 61.200 57.400 68.800
H 61.200 68.800 57.400
H 68.800 57.400 61.200
H 68.800 61.200 57.400
H 57.400 68.800 68.800
H 68.800 57.400 68.800
H 68.800 68.800 57.400
H 100.272 2.698 82.374
H 97.345 64.806 29.224
H 25.748 98.869 21.984
H 11.484 89.097 123.941
H 0.513 66.585 105.641
H 79.628 93.828 37.944
H 119.311 92.895 70.531
H 18.482 48.534 87.637
H 57.438 56.422 80.310
H 66.708 84.552 78.135
H 104.679 67.814 118.124
H 41.501 11.760 39.091
H 14.818 107.729 6.097
H 81.417 71.186 106.507
H 25.863 111.391 45.715
H 98.104 38.475 114.912
H 42.317 21.452 51.029
H 12.150 106.744 19.650
H 49.935 122.754 128.391
H 59.320 107.396 32.679
H 77.658 117.368 69.493
H 76.726 5.107 46.434
H 10.350 39.710 42.994
H 100.598 5.195 55.834
H 40.940 82.744 45.025
H 5.603 114.389 99.221
H 114.153 54.276 78.725
H 66.751 77.719 34.088
H 39.113 3.302 39.398
H 31.470 72.485 73.516
H 61.767 38.064 8.353
H 127.246 44.162 64.356
H 127.020 57.301 41.375
H 67.574 75.158 111.011
H 8.853 60.389 101.653
H 93.418 76.183 4.822
H 45.585 73.215 38.965
H 66.603 87.551 20.695
H 6.562 43.916 14.048
H 23.257 115.158 47.497
H 28.440 97.825 13.894
H 96.798 61.072 77.773
H 19.191 23.925 83.859
H 6.322 32.320 70.513
H 29.481 49.583 119.890
H 120.296 73.677 69.351
H 1.932 127.127 74.494
H 102.928 73.002 114.054
H 75.945 92.150 19.309
H 55.699 90.206 13.601
H 57.149 21.606 65.907
H 106.475 11.714 104.009
H 73.466 76.615 25.753
H 56.695 38.467 4.882
H 3.989 58.904 96.832
H 72.448 50.065 21.849
H 108.974 77.877 101.753
H 80.046 2.751 97.560
H 22.885 59.607 66.706
H 62.923 109.770 22.726
H 1.903 110.339 96.548
H 59.371 54.197 15.175
H 44.028 12.306 93.058
H 10.021 26.774 74.591
H 38.198 85.244 104.464
H 45.658 12.147 105.731
H 102.033 51.144 112.382
H 49.924 33.449 107.822
H 95.730 65.988 83.762
H 27.714 116.442 125.573
H 41.210 112.522 40.337
H 3.284 6.395 24.001
H 8.974 33.472 118.766
H 59.520 16.928 105.286
H 52.451 3.176 111.388
H 35.658 92.184 46.250
H 103.260 109.800 69.959
H 72.681 15.926 49.093
H 55.737 66.457 115.929
H 39.027 51.537 103.126
H 53.596 24.033 109.232
H 74.005 7.807 128.559
H 29.742 79.911 47.843
H 104.361 81.583 106.758
H 37.473 35.723 78.137
H 122.007 91.949 34.242
H 15.904 59.634 126.726
H 88.475 25.123 6.076
H 123.844 111.624 107.627
H 125.307 77.862 121.019
H 19.080 14.815 48.364
H 99.653 41.748 82.945
H 1.199 70.650 43.908
H 116.743 122.292 49.936
H 51.495 116.646 7.647
H 52.699 16.923 11.306
H 101.915 39.595 75.927
H 114.201 114.503 78.124
H 83.880 7.362 38.673
H 89.931 24.574 104.391
H 66.919 98.447 23.113
H 10.741 62.669 68.751
H 90.520 26.619 87.278
H 103.125 5.426 125.236
H 126.801 71.586 8.438
H 44.881 2.656 104.111
H 27.031 18.623 90.986
H 7.533 33.359 66.343
H 129.384 19.047 58.437
H 78.187 12.645 37.536
H 93.704 71.605 109.015
H 75.443 23.994 80.015
H 115.304 67.183 81.399
H 65.658 118.256 53.730
H 69.611 44.544 16.845
H 86.167 121.637 79.655
H 109.556 28.328 117.412
H 1.270 29.356 17.167
H 117.981 118.330 75.538
H 11.374 15.194 100.239
H 95.263 11.327 46.470
H 100.518 17.091 69.918
H 98.114 35.428 73.647
H 90.186 93.371 98.330
H 4.852 88.249 62.039
H 13.022 79.846 108.929
H 95.406 41.804 8.821
H 4.853 72.686 20.911
H 34.825 30.643 2.515
H 19.719 4.407 127.639
H 46.863 107.310 53.591
H 32.913 30.772 100.505
H 87.263 91.823 110.910
H 84.759 102.512 115.995
H 40.184 17.629 97.620
H 68.488 102.016 55.890
H 109.050 69.856 32.555
H 7.656 11.953 22.646
H 57.103 105.421 118.352
H 74.892 37.850 84.732
H 82.930 65.465 125.522
H 104.870 120.708 79.812
H 127.661 92.948 1.126
H 37.459 109.382 57.613
H 22.496 14.889 103.724
H 84.358 65.227 37.133
H 82.770 47.884 70.140
H 99.069 109.185 13.644
H 66.382 83.914 19.899
H 0.229 125.716 105.023
H 35.629 36.282 15.688
H 62.489 121.199 118.941
H 31.704 51.332 126.131
H 35.831 121.920 99.972
H 115.013 113.231 19.041
H 102.595 118.199 108.962
H 92.564 39.959 45.992
H 30.726 11.676 25.282
H 80.055 121.171 89.841
H 73.170 34.288 68.529
H 104.570 38.360 23.834
H 2.565 96.632 4.978
H 56.378 108.171 1.750
H 66.214 62.341 3.855
H 1.486 43.140 7.986
H 77.763 115.170 53.577
H 4.975 10.510 10.649
H 105.218 104.090 2.198
H 111.968 118.469 52.114
H 37.296 109.596 80.216
H 18.278 29.738 109.395
H 109.767 28.619 105.448
H 69.674 79.356 68.103
H 83.152 0.670 3.216
H 89.703 22.307 90.211
H 37.085 7.164 75.689
H 38.456 41.966 125.709
H 25.342 45.162 13.522
H 52.232 12.070 65.630
H 96.537 0.688 11.721
H 7.304 114.962 128.126
H 67.623 25.794 121.335
H 85.098 102.933 66.458
H 102.468 43.524 14.723
H 117.626 0.549 9.556
H 17.198 122.479 39.381
H 27.731 33.236 12.470
H 52.234 95.034 84.267
H 32.610 29.567 64.456
H 112.419 82.428 98.084
H 56.826 52.028 93.979
H 48.408 71.838 10.460
H 77.256 36.520 96.518
H 38.848 98.480 29.427
H 0.573 18.171 38.449
H 25.427 71.355 27.299
H 101.204 63.008 83.114
H 21.801 120.209 93.254
H 20.126 94.072 24.233
H 107.856 25.563 124.969
H 71.188 28.972 27.654
H 81.638 82.326 39.426
H 106.128 54.477 105.802
H 34.478 127.845 113.400
H 58.308 43.600 3.862
H 128.822 88.523 24.591
H 5.856 1.708 86.035
H 13.977 40.294 40.033
H 15.271 123.101 127.061
H 117.582 103.503 8.506
H 93.215 59.268 19.693
H 84.074 3.800 97.958
H 115.665 1.349 42.566
H 107.704 14.638 3.210
H 105.866 32.358 32.396
H 20.571 35.887 55.732
H 33.595 47.703 45.408
H 43.295 39.438 40.967
H 35.129 117.038 125.707
H 116.571 48.526 84.276
H 40.487 105.296 104.620
H 103.274 14.487 105.508
H 101.342 115.060 41.915
H 13.932 20.962 87.462
H 92.839 30.840 104.743
H 119.379 128.001 129.616
H 67.070 91.011 9.953
H 117.148 105.766 46.678
H 126.841 50.178 2.107
H 2.428 70.738 57.609
H 3.341 47.880 54.642
H 52.703 129.750 20.368
H 56.805 35.130 125.965
H 76.675 91.544 84.492
H 98.203 115.091 32.897
H 29.639 78.343 30.701
H 95.028 86.320 31.106
H 24.169 40.661 47.623
H 76.688 98.701 41.906
H 92.800 59.445 84.530
H 65.347 56.081 93.310
H 1.607 10.438 74.928
H 105.771 73.000 78.467
H 28.676 119.540 26.715
H 89.484 48.777 27.499
H 106.729 14.895 100.497
H 62.798 123.462 71.461
H 68.175 113.566 84.074
H 42.800 1.358 17.822
H 100.141 108.299 86.408
H 74.822 118.098 92.869
H 62.647 91.961 83.118
H 3.242 104.400 97.025
H 50.319 76.222 30.726
H 128.522 76.542 25.880
H 128.722 110.903 44.736
H 85.415 121.298 72.680
H 80.224 60.969 129.328
H 121.352 3.673 58.291
H 44.197 20.249 38.434
H 93.243 63.311 40.079
H 119.593 90.448 35.974
H 103.110 129.823 91.559
H 61.728 103.410 69.226
H 74.702 125.610 122.549
H 76.604 29.843 64.396
H 56.635 43.026 78.488
H 12.309 15.048 126.059
H 123.876 49.400 128.385
H 93.370 120.150 43.135
H 109.539 78.640 109.436
H 11.419 45.564 55.795
H 104.344 31.469 0.433
H 50.525 119.807 19.841
H 97.499 123.173 32.601
H 20.467 44.597 38.002
H 35.154 61.683 72.618
H 0.825 109.650 17.684
H 99.117 10.717 99.289
H 47.241 31.427 98.621
H 7.256 58.341 117.107
H 117.947 60.955 108.036
H 86.826 34.023 46.483
H 120.590 114.673 124.492
H 28.755 19.611 16.019
H 62.136 33.465 123.037
H 63.823 93.716 129.510
H 56.594 2.790 1.963
H 61.321 82.945 13.721
H 28.555 95.542 92.707
H 124.850 95.073 109.206
H 77.253 88.659 92.406
H 22.829 49.646 51.841
H 50.328 24.352 55.040
H 95.937 128.716 8.949
H 110.818 102.017 62.314
H 38.680 62.828 51.076
H 116.960 36.402 12.300
H 65.586 23.110 30.085
H 90.708 115.075 116.534
H 104.886 102.315 105.500
H 42.193 80.709 23.607
H 110.844 124.519 32.837
H 9.026 94.829 119.217
H 109.650 1.699 56.015
H 51.402 54.784 18.231
H 98.961 90.020 79.538
H 120.758 93.004 42.000
H 106.086 123.114 20.975
H 68.767 101.314 46.517
H 47.930 91.152 71.901
H 80.957 26.686 83.614
H 64.495 85.402 38.091
H 18.364 108.777 14.712
H 14.558 59.659 53.945
H 122.905 53.578 42.355
H 41.790 32.398 96.060
H 3.776 84.285 8.454
H 31.225 11.758 98.925
H 27.993 88.466 61.733
H 121.006 20.536 62.560
H 11.842 22.939 9.572
H 44.719 88.009 36.093
H 40.361 7.080 39.336
H 111.181 73.820 126.110
H 89.951 17.251 20.848
H 50.824 22.470 3.510
H 29.782 52.255 67.027
H 27.320 21.465 89.693
H 12.375 45.283 105.165
H 59.753 81.396 26.474
H 12.178 126.818 47.755
H 74.917 31.971 129.020
H 73.615 67.182 114.586
H 1.549 94.932 41.441
H 84.500 107.292 56.451
H 20.389 62.057 42.901
H 31.270 79.034 27.817
H 62.879 57.730 47.424
H 47.201 27.826 47.856
H 20.047 92.194 107.194
H 37.182 91.698 122.669
H 17.633 63.911 85.481
H 67.915 16.953 52.408
H 53.611 56.006 15.481
H 33.536 61.234 114.244
H 101.264 103.475 0.574
H 111.188 25.576 119.771
H 15.046 12.980 53.944
H 107.917 85.583 109.273
H 38.835 37.876 28.550
H 113.504 129.029 16.241
H 67.174 46.285 103.313
H 115.366 112.179 110.548
H 56.184 98.775 7.827
H 32.118 77.431 34.884
H 122.168 79.742 121.714
H 57.900 5.241 7.061
H 44.924 25.933 116.159
H 16.785 67.156 128.313
H 128.910 20.511 53.916
H 89.244 46.361 85.392
H 22.299 63.042 33.158
H 111.480 7.532 90.530
H 98.923 17.131 20.225
H 106.290 116.447 127.654
H 96.660 100.366 31.962
H 109.487 2.395 18.629
H 47.147 50.883 56.509
H 110.277 92.405 58.550
H 95.686 14.514 35.397
H 93.279 121.348 75.534
H 31.775 88.966 118.862
H 39.635 61.808 18.071
H 109.465 73.850 4.145
H 25.020 122.175 84.515
H 3.939 116.103 1.767
H 1.587 0.537 5.509
H 50.216 40.739 43.271
H 58.206 127.745 108.494
H 105.547 90.804 63.264
H 73.142 4.589 30.918
H 16.823 89.361 27.967
H 107.319 30.788 119.404
H 127.881 64.022 113.959
H 25.966 11.254 94.779
H 13.912 105.730 100.458
H 7.549 18.283 82.809
H 49.290 36.925 47.124
H 36.956 115.083 122.105
H 94.028 67.669 95.726
H 112.597 9.182 16.126
H 14.304 30.000 113.447
H 101.906 34.821 98.173
H 125.109 95.036 76.208
H 88.488 16.233 125.823
H 11.001 39.653 76.719
H 79.690 26.968 10.560
H 84.760 34.696 95.827
H 67.274 26.447 116.238
H 72.156 117.102 79.016
H 93.385 33.172 91.655
H 37.916 62.331 0.683
H 46.581 5.784 28.704
H 57.075 18.270 124.377
H 35.086 25.369 118.142
H 91.953 112.720 26.717
H 30.858 114.728 129.581
H 124.896 65.212 50.229
H 52.594 98.389 30.431
H 101.124 83.279 59.305
H 13.166 60.987 121.150
H 121.053 76.979 109.120
H 40.032 70.168 77.622
H 3.221 23.811 13.943
H 121.213 5.041 127.095
H 31.162 15.677 57.202
H 101.676 56.553 113.237
H 35.701 61.584 101.322
H 110.472 59.607 85.370
H 100.285 81.782 26.638
H 110.146 108.971 53.376
H 86.164 55.542 75.273
H 67.523 17.457 122.337
H 29.312 114.811 31.572
H 30.975 89.813 113.243
H 23.336 58.652 24.244
H 127.852 63.653 107.732
H 49.906 6.906 37.851
H 122.431 1.805 87.045
H 126.972 50.776 40.822
