512
H Spherical Lattice with Extra Atoms
H 65.000 65.000 65.000
H 61.200 65.000 65.000
H 65.000 61.200 65.000
H 65.000 65.000 61.200
H 65.000 65.000 68.800
H 65.000 68.800 65.000
H 68.800 65.000 65.000
H 61.200 61.200 65.000
H 61.200 65.000 61.200
H 65.000 61.200 61.200
H 61.200 65.000 68.800
H 61.200 68.800 65.000
H 65.000 61.200 68.800
H 65.000 68.800 61.200
H 71.604 92.059 37.818
H 66.408 116.083 116.518
H 16.326 26.942 6.691
H 57.305 3.884 59.388
H 84.389 36.203 87.913
H 76.812 3.118 72.651
H 33.703 53.963 36.858
H 90.108 57.259 20.393
H 70.804 101.441 39.827
H 28.855 50.436 121.730
H 126.879 87.410 117.368
H 109.948 49.139 11.988
H 84.943 72.519 47.003
H 29.257 52.848 60.962
H 35.001 37.933 59.499
H 111.869 76.213 36.853
H 36.137 59.101 26.703
H 26.179 66.825 11.340
H 62.866 47.083 91.999
H 97.077 89.842 89.593
H 48.568 86.858 44.180
H 74.463 42.355 57.869
H 7.999 31.548 126.308
H 29.976 89.892 84.562
H 94.112 61.762 77.566
H 8.706 9.433 25.867
H 19.742 13.014 16.808
H 71.926 24.416 123.773
H 88.610 70.333 91.933
H 34.305 120.474 109.095
H 94.422 62.431 109.473
H 96.818 85.842 118.817
H 82.377 47.572 71.870
H 25.529 24.969 94.337
H 102.042 126.373 110.626
H 70.667 11.673 63.554
H 120.632 102.390 63.062
H 59.186 28.338 23.038
H 9.571 116.011 83.223
H 18.633 53.836 6.384
H 27.219 94.992 84.646
H 62.267 35.721 84.789
H 124.338 56.618 9.117
H 7.505 10.773 124.762
H 70.299 108.870 22.104
H 33.845 89.957 116.424
H 44.290 8.408 112.336
H 37.813 96.341 20.544
H 90.345 109.385 94.530
H 46.684 94.470 18.131
H 40.796 54.546 114.038
H 19.986 114.416 103.865
H 126.311 47.801 26.642
H 31.274 107.622 125.480
H 90.845 62.725 37.316
H 108.379 113.383 11.977
H 28.073 108.129 110.280
H 40.905 36.308 56.006
H 70.128 12.424 108.799
H 69.516 100.746 30.009
H 125.488 97.634 44.602
H 123.309 91.067 109.273
H 5.915 7.233 96.556
H 39.609 67.182 20.314
H 127.134 65.358 107.770
H 9.625 62.259 8.096
H 114.951 57.955 8.911
H 9.945 70.043 9.824
H 23.890 56.726 64.712
H 75.831 80.667 48.465
H 80.436 20.442 35.816
H 103.833 19.902 29.032
H 31.587 62.336 0.097
H 3.940 60.001 21.128
H 88.335 103.377 75.161
H 90.319 50.825 6.019
H 57.125 48.357 77.610
H 17.448 29.603 105.922
H 34.362 53.342 121.676
H 35.822 18.888 91.263
H 73.719 79.507 5.464
H 54.245 0.555 32.050
H 91.787 8.000 38.310
H 128.455 126.259 62.640
H 95.640 82.245 60.540
H 111.419 22.427 107.696
H 5.469 112.704 87.880
H 57.969 87.304 59.848
H 101.400 14.748 66.060
H 113.294 120.579 28.644
H 32.751 117.522 44.917
H 7.393 92.935 53.874
H 95.592 62.022 65.074
H 54.283 37.763 117.092
H 86.942 102.548 116.446
H 32.525 119.577 112.139
H 65.791 73.827 14.941
H 99.075 22.519 69.399
H 16.437 9.479 79.174
H 63.856 87.725 102.811
H 127.749 10.930 82.058
H 75.007 84.583 70.613
H 72.458 112.912 58.762
H 69.547 89.825 11.634
H 56.150 13.277 17.915
H 0.276 27.262 28.163
H 67.112 74.127 107.115
H 63.272 115.889 51.358
H 96.799 71.858 81.097
H 35.151 121.887 100.055
H 18.927 69.866 129.452
H 6.377 39.367 96.306
H 5.117 97.067 74.545
H 95.122 71.608 122.122
H 45.032 74.681 6.601
H 71.946 54.521 127.811
H 122.929 17.976 5.410
H 15.688 25.057 94.402
H 70.717 69.540 60.390
H 0.870 51.021 129.862
H 106.638 74.472 25.540
H 119.661 55.139 80.513
H 26.404 42.649 44.844
H 51.318 2.890 85.845
H 22.099 78.429 80.545
H 90.728 37.951 37.964
H 98.219 50.469 19.820
H 117.684 1.701 115.243
H 37.993 49.637 127.193
H 56.768 93.065 53.610
H 118.760 93.534 62.490
H 10.949 47.272 63.779
H 36.902 69.503 27.255
H 64.263 68.641 87.537
H 96.898 94.897 55.135
H 59.274 113.556 47.162
H 95.944 129.229 120.225
H 71.401 39.664 80.901
H 88.959 68.505 44.392
H 59.205 10.633 37.867
H 18.837 86.642 124.700
H 20.441 3.678 96.376
H 46.041 65.776 7.936
H 23.109 90.416 78.677
H 110.943 125.180 46.750
H 80.632 58.198 65.728
H 50.895 127.061 81.073
H 18.445 90.705 125.548
H 116.330 72.541 1.913
H 104.721 121.142 95.411
H 55.764 49.509 96.799
H 14.021 102.010 64.845
H 9.115 106.996 50.922
H 13.879 22.594 111.726
H 22.456 101.953 104.535
H 11.247 56.600 102.331
H 63.708 112.582 49.364
H 81.681 27.758 109.493
H 109.116 73.558 42.001
H 45.184 77.309 16.693
H 66.361 38.405 44.405
H 41.839 108.490 22.815
H 30.738 21.382 1.963
H 55.329 109.713 117.357
H 63.358 54.779 112.862
H 68.704 71.327 84.411
H 10.350 109.006 13.747
H 69.202 120.381 71.332
H 44.487 94.462 117.132
H 80.111 7.265 114.245
H 2.337 88.171 117.006
H 20.468 68.661 91.657
H 22.817 31.876 8.654
H 20.670 15.361 37.784
H 97.575 90.179 99.138
H 85.756 103.250 19.364
H 72.061 2.790 63.916
H 109.644 61.397 38.426
H 35.705 51.160 118.797
H 126.658 97.290 128.376
H 99.091 36.951 56.561
H 94.009 92.214 88.156
H 63.425 18.607 124.753
H 28.616 127.320 16.565
H 127.444 48.895 105.422
H 0.948 57.850 32.362
H 90.288 86.193 60.049
H 91.863 127.174 12.122
H 73.148 87.875 82.318
H 34.093 113.744 31.919
H 109.845 61.195 18.602
H 107.137 10.164 103.349
H 78.002 113.966 104.417
H 52.256 17.575 34.605
H 0.172 84.942 11.117
H 23.308 31.847 52.793
H 89.284 57.781 65.490
H 12.117 43.963 26.867
H 96.088 2.295 80.183
H 90.725 65.604 5.782
H 32.642 30.917 34.810
H 34.215 126.453 102.851
H 115.818 92.755 45.066
H 122.441 62.979 24.107
H 94.835 33.710 106.962
H 96.262 37.726 59.754
H 92.963 86.842 68.455
H 27.839 42.171 90.323
H 59.408 93.322 88.935
H 46.235 12.883 88.502
H 46.226 73.445 16.249
H 18.983 55.099 87.019
H 15.270 100.678 110.677
H 87.441 97.449 31.002
H 13.035 42.787 16.320
H 54.144 98.946 36.543
H 111.260 58.888 21.048
H 83.496 57.008 42.930
H 67.130 128.839 97.745
H 38.163 120.567 23.942
H 53.058 48.437 128.141
H 0.587 84.405 66.126
H 20.271 83.418 105.022
H 99.708 10.091 103.363
H 44.968 110.838 73.072
H 10.391 96.818 73.267
H 58.686 83.000 57.682
H 4.800 118.652 37.415
H 36.315 6.464 93.261
H 118.229 60.184 105.836
H 42.746 50.016 37.924
H 38.342 72.968 42.372
H 8.553 89.735 40.123
H 50.997 24.218 6.417
H 85.057 55.018 121.211
H 2.460 107.236 2.410
H 22.486 1.799 66.220
H 45.982 41.385 126.671
H 75.146 120.425 115.565
H 44.144 84.961 25.357
H 47.515 89.022 73.947
H 11.044 10.158 100.230
H 91.138 84.315 28.707
H 101.896 75.002 19.125
H 21.602 80.704 127.176
H 76.189 38.372 93.093
H 26.418 83.378 53.808
H 4.004 67.132 65.976
H 118.550 92.413 39.498
H 83.870 32.500 85.040
H 78.187 79.883 20.946
H 92.389 69.904 96.500
H 5.807 95.292 123.534
H 76.135 18.219 120.091
H 72.241 36.064 80.878
H 111.656 14.079 72.756
H 82.256 120.395 4.964
H 65.966 95.241 85.760
H 111.985 85.337 82.112
H 79.287 21.409 111.108
H 67.061 2.776 106.661
H 89.510 85.463 6.729
H 91.708 43.942 105.882
H 20.287 43.606 13.404
H 2.386 42.064 90.919
H 54.571 38.733 121.713
H 94.471 126.311 39.383
H 25.223 125.886 10.329
H 102.114 123.147 93.349
H 74.678 47.964 38.418
H 8.722 49.254 65.380
H 32.345 126.050 129.811
H 37.633 78.033 114.762
H 75.882 45.742 109.963
H 68.735 80.505 98.402
H 37.476 89.205 34.649
H 84.820 33.359 103.511
H 45.152 124.855 22.540
H 92.863 111.147 113.263
H 67.603 71.417 38.247
H 111.362 99.097 66.737
H 65.388 119.530 72.916
H 12.200 14.063 99.660
H 68.358 72.327 56.280
H 2.951 104.421 49.600
H 60.345 57.292 17.382
H 125.218 124.724 1.271
H 7.094 50.203 127.632
H 62.634 119.946 44.421
H 64.393 107.745 85.620
H 39.852 59.364 81.134
H 52.115 25.772 29.218
H 96.277 27.358 24.113
H 37.343 128.576 128.887
H 62.377 28.341 57.643
H 114.781 75.355 117.077
H 114.443 105.842 114.912
H 66.675 21.946 101.333
H 129.007 86.098 32.129
H 120.656 120.083 120.132
H 86.188 121.981 30.260
H 74.749 129.142 129.334
H 104.129 76.307 81.598
H 51.002 28.953 116.546
H 76.060 46.649 42.549
H 22.419 24.056 86.794
H 37.225 41.192 109.862
H 12.165 123.388 53.952
H 107.568 107.109 88.727
H 6.863 85.112 58.053
H 40.357 67.455 86.394
H 50.714 53.150 28.003
H 12.753 85.402 77.960
H 97.194 41.488 34.011
H 37.325 108.916 110.347
H 105.660 36.219 49.119
H 37.733 89.228 30.565
H 96.595 103.083 69.336
H 22.686 34.128 73.738
H 95.569 26.109 84.267
H 118.118 95.189 115.494
H 124.641 35.683 27.045
H 117.080 50.638 14.029
H 81.053 62.209 24.965
H 119.103 62.376 128.853
H 36.569 7.752 117.994
H 38.512 120.094 63.000
H 90.135 15.111 34.399
H 88.255 123.796 106.600
H 117.588 100.710 126.363
H 30.949 15.909 31.268
H 75.411 48.191 4.572
H 16.210 36.554 43.605
H 41.282 73.516 85.206
H 109.826 49.387 121.939
H 49.539 55.035 53.854
H 44.543 10.720 32.994
H 9.818 43.237 24.621
H 83.955 97.015 63.507
H 62.730 44.793 124.687
H 129.138 83.500 110.007
H 48.834 76.419 48.016
H 123.375 79.007 116.235
H 80.342 11.020 40.080
H 77.105 119.029 85.377
H 46.062 85.522 82.238
H 126.368 78.952 1.050
H 128.323 18.944 46.937
H 125.405 87.406 88.712
H 56.411 52.091 39.415
H 98.962 47.341 16.127
H 26.407 18.708 116.696
H 34.830 30.055 85.160
H 39.101 104.498 89.292
H 76.631 61.933 48.941
H 57.327 91.910 7.672
H 30.096 90.947 92.150
H 74.393 33.994 29.313
H 69.347 34.276 96.128
H 99.800 93.518 81.787
H 116.137 71.840 36.667
H 30.909 13.012 80.308
H 99.476 79.334 17.213
H 91.150 96.090 47.957
H 71.152 10.023 77.816
H 2.424 45.259 105.171
H 81.741 48.736 118.794
H 81.531 120.858 63.608
H 85.052 83.562 6.734
H 18.163 16.150 27.067
H 128.365 87.330 93.734
H 119.768 23.625 97.928
H 68.041 49.290 96.979
H 103.854 77.440 89.224
H 110.684 46.997 108.657
H 62.046 118.903 93.287
H 79.924 127.354 66.430
H 27.927 68.595 48.590
H 126.013 23.156 80.984
H 72.730 16.063 90.550
H 75.371 56.536 123.870
H 14.171 82.009 37.910
H 64.616 47.820 89.212
H 115.862 10.257 62.243
H 95.521 37.564 43.702
H 122.789 14.362 76.302
H 124.625 2.999 4.170
H 72.223 9.784 41.735
H 102.997 72.781 75.480
H 119.242 13.613 128.498
H 83.407 89.408 2.074
H 113.251 51.252 51.742
H 82.713 51.662 122.217
H 119.168 48.487 29.387
H 52.862 129.063 39.636
H 64.456 25.805 62.767
H 123.830 52.219 1.669
H 80.213 101.976 45.001
H 13.344 46.960 102.451
H 61.039 2.619 90.819
H 34.531 71.398 55.348
H 25.525 51.330 34.766
H 69.987 19.468 129.694
H 107.765 94.704 32.618
H 123.917 126.546 15.286
H 32.761 17.258 38.225
H 102.872 127.926 69.073
H 54.808 96.604 112.146
H 66.444 63.697 52.614
H 57.226 56.932 15.047
H 121.489 67.649 89.533
H 59.065 101.473 29.008
H 110.063 124.620 16.958
H 56.856 5.321 100.840
H 68.000 4.195 117.810
H 120.131 36.432 96.238
H 9.599 85.088 40.867
H 3.191 39.588 69.826
H 4.481 114.276 54.283
H 66.512 125.704 120.803
H 93.435 94.408 108.886
H 82.499 78.896 112.994
H 16.489 127.554 32.744
H 30.361 81.092 72.400
H 71.016 113.273 0.748
H 19.762 25.215 71.850
H 46.900 84.128 54.462
H 3.326 102.723 65.409
H 51.009 36.462 112.848
H 81.335 12.864 51.560
H 128.702 32.894 15.654
H 8.917 8.973 5.029
H 60.762 117.768 123.181
H 117.788 49.703 89.271
H 7.804 100.242 35.835
H 85.387 37.567 63.460
H 59.882 79.369 42.467
H 24.333 73.322 100.173
H 49.877 124.737 57.688
H 50.533 50.517 125.076
H 38.377 80.789 68.831
H 127.696 5.863 127.447
H 45.571 104.583 26.211
H 92.731 43.170 24.655
H 23.038 22.560 118.392
H 59.456 40.963 105.704
H 69.765 87.353 36.672
H 25.226 18.533 44.088
H 53.176 83.396 50.498
H 49.804 25.838 51.284
H 71.741 17.787 98.266
H 119.116 73.964 40.200
H 126.256 16.062 24.824
H 99.958 105.231 48.568
H 12.330 83.033 44.651
H 110.816 8.378 69.549
H 21.839 123.084 126.501
H 76.202 90.160 114.386
H 117.376 15.301 43.188
H 102.932 35.675 55.210
H 127.794 61.671 74.802
H 29.222 19.139 117.695
H 99.961 17.252 121.083
H 116.472 42.708 114.415
H 17.431 32.292 114.411
H 68.471 53.525 39.094
H 28.253 23.059 58.675
H 65.032 11.135 95.434
H 11.739 18.287 115.699
H 48.733 16.874 51.012
H 22.100 15.545 127.764
H 11.057 96.725 58.545
H 29.890 114.396 67.755
H 6.109 49.735 79.751
H 55.265 38.808 42.658
H 39.363 61.835 129.669
H 119.654 70.096 115.492
H 34.134 72.812 67.341
H 13.946 126.401 48.107
H 73.820 3.008 67.579
H 57.621 114.065 8.791
H 114.712 25.038 109.625
H 99.343 78.432 46.547
H 59.086 87.174 48.927
H 8.415 91.771 92.367
H 36.993 28.075 116.874
H 30.768 51.080 73.448
H 61.361 28.483 30.857
H 65.580 16.759 117.048
H 34.162 19.360 23.784
H 25.428 118.686 55.927
H 98.183 107.268 11.796
H 80.281 106.776 29.840
H 121.327 69.575 67.286
H 129.234 23.557 120.914
H 32.754 72.851 9.959
H 46.754 32.095 100.931
H 128.615 19.673 7.941
