512
H Spherical Lattice with Extra Atoms
H 65.000 65.000 65.000
H 61.200 65.000 65.000
H 65.000 61.200 65.000
H 65.000 65.000 61.200
H 65.000 65.000 68.800
H 65.000 68.800 65.000
H 68.800 65.000 65.000
H 61.200 61.200 65.000
H 61.200 65.000 61.200
H 65.000 61.200 61.200
H 61.200 65.000 68.800
H 61.200 68.800 65.000
H 65.000 61.200 68.800
H 65.000 68.800 61.200
H 68.800 61.200 65.000
H 68.800 65.000 61.200
H 65.000 68.800 68.800
H 68.800 65.000 68.800
H 68.800 68.800 65.000
H 61.200 61.200 61.200
H 61.200 61.200 68.800
H 61.200 68.800 61.200
H 68.800 61.200 61.200
H 61.200 68.800 68.800
H 68.800 61.200 68.800
H 68.800 68.800 61.200
H 68.800 68.800 68.800
H 65.000 65.000 72.600
H 65.000 72.600 65.000
H 72.600 65.000 65.000
H 57.400 65.000 65.000
H 65.000 57.400 65.000
H 65.000 65.000 57.400
H 61.200 65.000 72.600
H 61.200 72.600 65.000
H 65.000 61.200 72.600
H 65.000 72.600 61.200
H 72.600 61.200 65.000
H 72.600 65.000 61.200
H 65.000 68.800 72.600
H 65.000 72.600 68.800
H 68.800 65.000 72.600
H 68.800 72.600 65.000
H 72.600 65.000 68.800
H 72.600 68.800 65.000
H 57.400 61.200 65.000
H 57.400 65.000 61.200
H 61.200 57.400 65.000
H 61.200 65.000 57.400
H 65.000 57.400 61.200
H 65.000 61.200 57.400
H 57.400 65.000 68.800
H 57.400 68.800 65.000
H 65.000 57.400 68.800
H 65.000 68.800 57.400
H 68.800 57.400 65.000
H 68.800 65.000 57.400
H 61.200 61.200 72.600
H 61.200 72.600 61.200
H 72.600 61.200 61.200
H 61.200 68.800 72.600
H 61.200 72.600 68.800
H 68.800 61.200 72.600
H 68.800 72.600 61.200
H 72.600 61.200 68.800
H 72.600 68.800 61.200
H 54.213 93.642 0.015
H 39.303 19.078 12.004
H 24.214 44.923 51.580
H 70.046 54.495 89.079
H 26.579 114.155 3.560
H 87.161 54.250 72.630
H 18.250 25.753 104.097
H 125.874 40.745 90.002
H 113.931 116.299 11.056
H 5.077 22.078 114.159
H 12.785 54.744 124.526
H 69.311 89.944 41.017
H 89.245 108.501 2.377
H 97.519 128.552 97.262
H 36.458 102.606 13.419
H 58.226 118.117 38.170
H 37.411 16.904 2.518
H 88.249 27.512 34.521
H 63.905 6.937 74.635
H 19.075 76.610 90.969
H 13.303 53.827 90.272
H 53.843 6.494 69.667
H 86.293 66.936 122.797
H 76.252 117.442 17.872
H 18.106 104.961 51.698
H 21.496 120.576 45.210
H 97.606 94.380 114.830
H 81.077 97.623 45.357
H 35.091 116.465 55.652
H 125.429 86.247 80.820
H 14.917 123.434 58.489
H 75.191 53.058 30.814
H 117.439 74.578 0.373
H 80.229 42.464 68.518
H 115.172 46.445 118.110
H 81.037 2.057 120.827
H 89.817 129.652 22.404
H 17.828 121.237 90.586
H 8.580 98.210 98.004
H 119.993 92.498 16.155
H 2.584 3.407 3.680
H 32.007 111.804 70.048
H 71.867 109.464 16.143
H 36.294 76.149 126.047
H 72.934 2.424 104.082
H 30.287 104.924 50.422
H 112.260 97.126 72.311
H 17.739 7.789 15.775
H 5.792 13.974 29.342
H 92.689 72.763 1.632
H 9.357 125.746 73.853
H 26.428 32.802 96.697
H 25.406 75.577 126.103
H 110.088 31.180 64.190
H 80.594 107.768 20.383
H 2.415 9.103 63.225
H 78.823 73.951 41.257
H 128.520 75.367 49.418
H 71.623 96.893 87.000
H 34.440 8.624 48.111
H 81.863 27.323 97.858
H 8.650 33.841 104.618
H 25.146 83.130 68.207
H 120.225 34.229 8.575
H 95.559 100.383 118.016
H 121.156 1.814 30.467
H 80.181 123.372 123.523
H 72.365 119.029 83.404
H 50.701 63.179 78.560
H 71.441 120.404 119.435
H 51.334 125.224 22.614
H 16.423 17.560 65.736
H 2.798 123.236 107.525
H 1.952 22.906 43.168
H 17.030 105.234 44.816
H 122.214 75.662 114.248
H 109.815 117.701 59.784
H 71.025 103.818 37.143
H 63.733 77.884 2.019
H 77.153 56.378 104.957
H 40.982 116.076 75.121
H 23.921 102.431 79.564
H 7.008 54.625 88.279
H 119.418 0.052 126.979
H 48.955 126.592 78.613
H 107.750 74.712 81.650
H 37.125 76.288 97.503
H 111.581 98.161 90.747
H 112.382 41.949 87.203
H 58.614 49.673 53.405
H 52.192 41.260 80.850
H 55.932 126.594 88.114
H 25.814 55.471 44.635
H 103.693 114.400 117.499
H 86.154 35.127 32.808
H 111.137 68.603 104.281
H 74.424 95.309 67.472
H 100.215 73.952 60.542
H 44.550 8.867 49.130
H 10.351 127.766 23.610
H 105.542 113.745 89.494
H 74.034 20.926 60.694
H 44.872 29.255 77.027
H 40.595 119.120 118.253
H 33.425 14.416 25.085
H 64.946 94.716 27.065
H 32.244 110.717 54.060
H 80.169 30.377 13.256
H 67.061 62.028 19.847
H 80.835 70.721 85.038
H 18.791 97.699 28.866
H 67.516 102.088 2.903
H 42.167 113.480 109.812
H 69.997 112.659 123.475
H 107.433 111.035 12.837
H 84.670 91.457 79.331
H 103.950 4.494 100.131
H 95.125 33.761 33.419
H 82.199 44.889 103.557
H 57.999 101.757 128.761
H 39.032 18.591 117.170
H 70.403 126.716 82.759
H 129.209 70.989 68.435
H 17.606 46.242 3.408
H 20.851 96.933 3.952
H 47.651 112.105 90.048
H 89.822 24.523 57.448
H 75.605 128.668 26.508
H 32.205 34.083 97.522
H 59.407 7.401 66.107
H 27.555 103.819 38.653
H 3.589 77.146 109.699
H 49.532 97.482 66.448
H 70.324 124.726 104.515
H 4.202 92.220 60.450
H 123.181 28.786 34.719
H 10.592 55.720 14.172
H 82.392 104.385 90.584
H 99.607 44.519 109.961
H 55.740 107.121 81.445
H 18.645 10.190 2.383
H 8.674 59.616 14.734
H 3.612 98.132 51.331
H 97.102 58.813 58.511
H 62.149 61.621 104.411
H 52.311 117.609 4.818
H 100.604 16.333 80.407
H 1.347 70.022 0.392
H 123.655 117.702 103.476
H 118.986 18.923 20.505
H 24.392 80.924 117.755
H 128.694 92.446 95.134
H 118.208 52.114 32.481
H 22.546 15.529 105.639
H 19.083 34.359 106.482
H 40.376 127.714 34.663
H 69.375 40.881 118.400
H 47.652 56.367 66.598
H 122.055 4.023 93.194
H 115.832 3.547 67.867
H 42.379 111.734 72.607
H 89.730 58.871 81.680
H 37.713 1.215 74.978
H 40.488 67.245 119.133
H 55.442 32.161 48.268
H 121.142 121.793 109.763
H 119.627 29.627 11.373
H 29.550 40.869 22.720
H 78.922 53.766 106.126
H 24.067 91.244 31.246
H 74.648 45.368 7.405
H 29.746 86.333 64.643
H 67.472 22.714 74.193
H 129.578 106.189 77.268
H 126.879 117.203 77.429
H 4.215 12.165 8.498
H 58.725 48.807 126.796
H 21.838 126.462 99.772
H 107.151 82.240 86.935
H 61.995 1.708 45.891
H 63.969 94.912 60.922
H 59.463 17.896 1.416
H 98.576 41.594 127.970
H 28.630 44.032 68.106
H 98.136 60.302 16.227
H 40.625 65.587 87.600
H 100.119 16.944 2.979
H 67.481 105.299 1.638
H 87.421 89.285 58.402
H 118.923 83.767 0.681
H 62.976 111.711 107.952
H 84.390 87.581 75.205
H 35.636 72.869 87.325
H 45.816 111.258 25.355
H 97.152 37.648 100.594
H 55.606 105.001 45.960
H 27.780 99.747 40.123
H 95.322 96.782 28.782
H 27.835 25.863 18.527
H 49.021 3.462 14.420
H 87.693 103.971 10.469
H 30.121 26.991 119.253
H 92.471 72.005 39.587
H 108.531 56.590 120.049
H 91.787 62.144 16.407
H 126.886 20.778 26.338
H 56.054 52.546 19.078
H 94.811 24.537 83.706
H 98.060 27.395 78.124
H 97.361 82.968 77.627
H 38.413 95.109 122.890
H 55.323 101.684 7.298
H 108.585 24.993 51.363
H 39.011 10.413 117.602
H 48.120 68.991 64.235
H 17.181 26.839 9.905
H 66.030 34.001 46.418
H 14.048 102.382 13.856
H 128.142 23.031 74.413
H 5.830 102.325 24.649
H 68.628 96.210 19.491
H 71.641 28.160 98.695
H 93.979 22.951 112.056
H 2.571 111.831 72.657
H 52.419 98.637 93.201
H 128.352 36.151 0.493
H 121.407 111.527 94.751
H 67.170 91.904 101.469
H 48.734 100.142 97.581
H 79.717 52.243 90.650
H 0.405 100.737 116.534
H 31.111 15.700 28.637
H 39.273 114.794 70.612
H 37.273 17.986 37.719
H 79.803 42.138 59.457
H 57.735 107.658 55.425
H 44.941 87.746 28.793
H 60.742 40.920 81.491
H 114.057 58.200 101.979
H 59.406 85.310 17.139
H 56.288 118.211 78.712
H 99.681 65.611 64.747
H 109.577 8.815 74.525
H 122.559 67.322 25.281
H 110.232 32.713 91.094
H 70.234 123.349 81.164
H 108.937 1.031 128.614
H 10.103 41.877 123.000
H 1.162 106.955 111.958
H 57.178 33.247 104.350
H 62.122 17.464 120.620
H 116.476 63.901 111.371
H 54.415 88.850 51.739
H 65.746 24.642 125.449
H 38.248 13.450 18.761
H 1.832 93.073 73.385
H 103.295 65.920 102.937
H 90.449 101.120 52.843
H 84.210 23.373 41.837
H 22.439 53.123 31.384
H 52.900 126.779 41.642
H 127.724 82.720 48.762
H 111.473 80.546 32.764
H 103.071 56.282 46.476
H 42.936 90.658 34.925
H 105.076 38.388 70.736
H 63.430 111.196 115.490
H 23.970 76.095 116.767
H 79.148 88.719 29.667
H 1.790 54.174 122.003
H 44.594 101.367 22.716
H 44.454 18.798 93.180
H 90.910 89.505 32.941
H 90.007 29.549 55.204
H 48.350 46.190 7.495
H 84.281 22.092 19.428
H 66.843 113.793 23.914
H 20.996 44.517 34.044
H 109.789 104.043 55.463
H 78.912 18.911 66.250
H 38.603 111.755 87.308
H 82.352 16.218 61.176
H 128.254 123.279 83.861
H 19.724 83.086 73.536
H 60.927 55.645 77.905
H 110.496 97.646 75.317
H 120.212 8.416 128.875
H 6.889 25.934 54.958
H 13.976 81.077 6.239
H 37.001 7.935 91.458
H 86.899 49.215 24.465
H 97.111 44.249 103.389
H 63.427 68.337 3.704
H 83.750 45.585 29.797
H 56.405 49.721 61.073
H 127.333 47.369 100.673
H 71.860 115.587 46.144
H 31.917 118.433 5.659
H 123.598 72.333 48.927
H 129.357 7.587 67.172
H 4.043 74.253 23.461
H 82.025 127.520 113.737
H 58.739 92.100 101.071
H 64.330 68.709 19.602
H 48.022 18.489 94.496
H 62.012 58.354 115.180
H 68.590 53.182 34.956
H 9.362 54.358 3.348
H 37.850 65.456 125.571
H 14.220 87.495 64.991
H 101.023 18.669 10.816
H 51.898 103.605 24.918
H 99.811 37.739 28.196
H 2.173 51.826 49.541
H 85.715 9.219 19.839
H 2.155 14.794 84.733
H 52.345 41.733 72.529
H 129.150 108.483 90.951
H 119.374 5.165 9.143
H 61.621 45.392 121.843
H 63.643 70.154 116.384
H 58.063 114.014 32.966
H 35.595 42.687 71.183
H 28.617 87.286 18.563
H 12.233 113.125 30.793
H 50.181 74.300 68.354
H 9.883 113.636 123.648
H 44.124 72.107 126.672
H 40.521 86.944 42.376
H 100.682 42.355 115.678
H 97.722 99.142 61.032
H 27.399 5.392 41.838
H 4.825 90.201 87.146
H 55.961 99.813 69.681
H 5.182 17.523 25.144
H 43.636 6.801 78.665
H 66.568 80.270 56.206
H 110.201 59.028 2.002
H 113.499 85.306 106.990
H 123.731 6.619 30.559
H 8.235 54.816 112.298
H 10.611 61.505 16.321
H 100.475 109.385 5.628
H 63.237 31.123 123.822
H 122.706 79.811 126.553
H 44.832 116.721 56.497
H 30.656 122.308 88.948
H 8.439 113.155 91.179
H 78.640 95.209 32.947
H 78.064 105.900 7.035
H 16.966 109.518 80.385
H 69.067 32.278 38.360
H 113.449 54.817 8.376
H 116.608 26.440 107.410
H 114.630 63.278 77.800
H 68.545 81.227 111.155
H 36.678 114.888 73.800
H 14.963 29.510 77.478
H 31.128 17.084 21.040
H 109.833 78.284 125.264
H 44.938 77.431 77.868
H 80.042 7.693 97.541
H 97.880 0.951 42.673
H 119.289 76.488 111.175
H 78.607 106.935 114.333
H 41.728 15.984 93.769
H 57.245 16.476 76.677
H 4.689 26.024 102.479
H 1.573 39.435 2.779
H 129.673 75.664 38.139
H 120.763 65.926 59.110
H 76.423 34.338 39.687
H 48.315 31.778 75.991
H 90.460 9.353 126.241
H 97.899 104.801 97.713
H 10.408 62.621 57.937
H 87.421 58.336 91.561
H 88.614 90.629 80.418
H 19.627 98.904 101.536
H 117.533 30.390 22.968
H 50.843 41.673 106.012
H 79.758 98.800 55.596
H 12.927 14.955 48.543
H 25.200 106.697 77.953
H 89.550 63.844 11.463
H 30.560 60.008 25.817
H 3.312 94.822 94.239
H 42.951 109.654 55.698
H 112.409 85.419 75.535
H 26.095 68.841 116.276
H 39.649 113.223 118.137
H 42.880 88.800 116.899
H 9.841 114.216 24.809
H 110.470 86.725 44.764
H 19.679 82.598 110.212
H 106.840 81.671 124.319
H 76.690 25.718 55.813
H 43.777 128.953 49.431
H 129.051 67.445 22.396
H 9.695 48.140 16.044
H 82.487 53.810 128.819
H 120.894 19.401 51.335
H 60.005 72.923 101.447
H 63.335 54.599 34.060
H 118.405 2.895 106.746
H 24.501 89.148 46.177
H 126.648 15.960 24.384
H 115.628 75.843 40.202
H 0.099 29.588 18.902
H 26.446 116.522 113.502
H 91.038 61.165 107.528
H 64.457 47.254 35.828
H 120.216 50.309 64.075
H 33.077 115.046 49.824
H 38.685 93.287 24.813
H 15.365 108.810 96.738
H 76.768 31.576 81.022
H 82.986 42.584 8.774
H 114.470 59.794 99.303
H 33.006 76.880 55.743
H 49.673 16.473 31.755
H 10.314 39.372 96.422
H 79.952 87.413 1.090
H 88.189 65.413 30.018
H 22.737 24.048 109.754
H 127.737 118.786 45.158
H 101.429 71.039 106.138
H 62.885 76.694 102.344
H 13.031 69.811 47.578
H 78.560 124.644 51.067
H 51.086 102.783 83.860
H 51.205 89.564 52.520
H 17.695 58.584 43.475
H 28.336 120.351 89.653
H 77.847 97.065 70.456
H 91.069 120.973 112.140
H 21.767 34.208 9.309
H 127.227 30.730 85.878
H 11.652 27.400 65.367
H 13.644 50.554 69.938
H 44.097 72.267 69.780
H 50.779 90.515 88.203
H 89.349 72.994 46.550
H 79.705 121.646 77.596
H 127.347 57.331 96.150
H 4.889 99.414 67.377
