512
H Spherical Lattice with Extra Atoms
H 65.000 65.000 65.000
H 61.200 65.000 65.000
H 65.000 61.200 65.000
H 65.000 65.000 61.200
H 65.000 65.000 68.800
H 65.000 68.800 65.000
H 68.800 65.000 65.000
H 61.200 61.200 65.000
H 61.200 65.000 61.200
H 65.000 61.200 61.200
H 61.200 65.000 68.800
H 61.200 68.800 65.000
H 65.000 61.200 68.800
H 65.000 68.800 61.200
H 68.800 61.200 65.000
H 68.800 65.000 61.200
H 65.000 68.800 68.800
H 68.800 65.000 68.800
H 68.800 68.800 65.000
H 61.200 61.200 61.200
H 61.200 61.200 68.800
H 61.200 68.800 61.200
H 68.800 61.200 61.200
H 61.200 68.800 68.800
H 68.800 61.200 68.800
H 68.800 68.800 61.200
H 68.800 68.800 68.800
H 65.000 65.000 72.600
H 65.000 72.600 65.000
H 72.600 65.000 65.000
H 57.400 65.000 65.000
H 65.000 57.400 65.000
H 65.000 65.000 57.400
H 61.200 65.000 72.600
H 61.200 72.600 65.000
H 65.000 61.200 72.600
H 65.000 72.600 61.200
H 72.600 61.200 65.000
H 72.600 65.000 61.200
H 65.000 68.800 72.600
H 65.000 72.600 68.800
H 68.800 65.000 72.600
H 68.800 72.600 65.000
H 72.600 65.000 68.800
H 72.600 68.800 65.000
H 57.400 61.200 65.000
H 57.400 65.000 61.200
H 61.200 57.400 65.000
H 61.200 65.000 57.400
H 65.000 57.400 61.200
H 65.000 61.200 57.400
H 57.400 65.000 68.800
H 57.400 68.800 65.000
H 65.000 57.400 68.800
H 65.000 68.800 57.400
H 68.800 57.400 65.000
H 68.800 65.000 57.400
H 61.200 61.200 72.600
H 61.200 72.600 61.200
H 72.600 61.200 61.200
H 61.200 68.800 72.600
H 61.200 72.600 68.800
H 68.800 61.200 72.600
H 68.800 72.600 61.200
H 72.600 61.200 68.800
H 72.600 68.800 61.200
H 57.400 61.200 61.200
H 61.200 57.400 61.200
H 56.679 3.370 71.456
H 56.592 54.648 42.944
H 26.604 80.505 38.955
H 34.688 80.747 68.788
H 17.495 66.765 23.977
H 102.094 111.017 64.251
H 110.053 10.354 65.682
H 8.487 55.656 12.549
H 16.531 77.577 29.382
H 13.903 28.640 45.477
H 60.812 26.227 83.253
H 62.799 65.681 50.296
H 103.173 75.401 21.099
H 91.098 125.392 65.001
H 115.638 44.410 73.729
H 55.581 56.777 100.953
H 69.629 123.986 70.747
H 10.672 47.625 110.611
H 52.816 3.536 32.133
H 8.729 129.201 126.175
H 104.034 78.236 99.445
H 21.999 38.093 68.129
H 46.361 5.938 127.810
H 57.376 65.520 42.060
H 33.767 50.296 108.162
H 95.777 49.297 1.692
H 103.663 35.021 75.749
H 3.322 86.086 50.378
H 64.620 53.938 45.613
H 71.627 126.478 14.661
H 40.724 5.434 95.992
H 85.477 27.903 54.178
H 83.699 85.993 22.162
H 114.615 101.141 17.414
H 112.959 97.341 103.816
H 70.635 28.709 119.400
H 76.971 45.011 34.291
H 118.809 54.566 70.225
H 79.097 107.412 81.063
H 22.973 76.863 63.605
H 71.228 90.938 31.955
H 24.262 14.376 35.628
H 1.333 81.817 38.372
H 27.940 37.128 61.283
H 71.435 109.865 128.506
H 6.353 30.175 83.630
H 20.991 113.119 28.262
H 96.428 84.893 103.855
H 4.062 29.845 91.602
H 11.383 3.977 46.428
H 76.672 6.789 8.536
H 5.655 51.370 86.896
H 25.744 113.915 56.211
H 80.553 37.755 79.983
H 123.976 58.242 26.916
H 55.298 57.795 65.990
H 68.345 5.516 21.374
H 58.530 92.036 101.086
H 101.023 65.361 124.377
H 43.144 62.590 97.289
H 111.519 53.880 110.329
H 57.794 93.047 1.098
H 3.276 122.259 13.278
H 86.056 36.824 26.110
H 50.483 120.367 74.136
H 119.173 91.294 65.158
H 65.791 28.447 0.606
H 54.319 73.239 113.953
H 88.086 109.503 120.401
H 122.345 106.082 17.081
H 45.062 27.105 112.760
H 103.003 45.370 73.988
H 104.667 108.311 26.753
H 94.988 104.444 5.607
H 13.934 56.561 28.715
H 114.481 93.559 92.691
H 100.082 42.997 29.719
H 81.425 53.882 121.782
H 83.519 50.297 111.166
H 49.503 23.180 101.616
H 61.387 33.732 90.012
H 127.463 32.013 102.732
H 99.104 15.605 109.057
H 60.026 16.352 69.725
H 38.547 22.844 10.301
H 25.857 55.847 83.436
H 11.359 93.045 13.227
H 22.828 92.732 115.084
H 127.808 84.878 62.106
H 11.412 72.664 23.550
H 66.872 79.161 108.318
H 42.088 128.552 129.344
H 107.400 90.240 95.377
H 113.785 123.696 110.794
H 83.322 9.555 81.040
H 45.918 21.421 116.112
H 107.236 68.463 60.248
H 63.609 33.894 52.343
H 56.767 1.957 116.078
H 3.789 48.476 12.464
H 25.605 122.515 48.265
H 94.770 16.401 32.667
H 114.561 117.428 37.393
H 125.725 86.853 65.391
H 49.140 43.858 123.761
H 90.133 69.433 5.654
H 32.182 122.612 72.392
H 46.477 1.229 32.961
H 33.049 22.189 44.847
H 26.344 8.177 12.735
H 64.575 9.056 121.570
H 26.793 60.348 53.907
H 37.874 42.059 27.508
H 36.435 15.224 89.603
H 83.788 40.499 114.439
H 50.229 79.442 68.012
H 42.257 120.873 110.266
H 109.346 124.058 0.323
H 63.975 121.929 17.475
H 31.849 65.658 88.195
H 43.259 39.827 100.854
H 4.271 102.154 55.710
H 81.771 91.715 12.801
H 117.500 106.901 48.800
H 25.323 8.165 40.119
H 92.715 105.714 42.456
H 28.638 42.561 125.368
H 12.492 21.084 90.251
H 18.169 34.661 104.413
H 39.080 77.612 74.466
H 34.508 32.335 37.658
H 113.872 2.439 11.913
H 44.357 28.639 73.171
H 70.130 64.397 39.098
H 66.488 102.210 105.626
H 69.269 104.824 4.456
H 20.029 97.264 50.033
H 41.327 74.361 48.415
H 118.239 50.306 108.712
H 78.229 118.562 62.927
H 124.607 74.972 3.607
H 96.053 111.982 12.812
H 125.248 73.245 96.291
H 29.120 122.354 83.633
H 69.117 5.820 71.031
H 96.767 47.892 88.312
H 73.334 27.037 71.086
H 61.879 43.904 86.143
H 7.950 48.460 56.434
H 126.603 90.766 81.353
H 20.273 56.562 48.261
H 122.252 58.866 111.163
H 84.970 114.307 0.434
H 120.222 123.668 20.142
H 8.542 41.247 76.122
H 68.137 56.566 118.648
H 74.097 121.438 74.900
H 24.073 127.670 129.805
H 58.041 99.116 82.753
H 24.082 75.296 85.051
H 77.186 70.392 76.944
H 92.169 100.227 11.577
H 118.754 58.451 90.561
H 50.393 6.637 86.273
H 47.536 71.861 34.657
H 26.504 38.507 109.443
H 120.122 127.216 53.863
H 100.514 21.847 96.753
H 55.147 109.732 25.613
H 106.459 9.402 109.994
H 55.074 18.296 39.769
H 92.217 58.017 30.324
H 31.040 90.113 84.210
H 8.310 105.627 18.224
H 31.273 1.807 65.813
H 110.621 120.866 60.230
H 13.357 61.660 37.760
H 40.222 31.585 123.980
H 51.663 0.465 64.384
H 91.026 105.985 97.940
H 91.281 25.752 45.514
H 59.731 17.805 55.559
H 13.193 11.343 108.704
H 21.963 61.473 81.239
H 122.066 39.822 23.546
H 113.805 39.466 36.095
H 19.517 57.809 30.092
H 46.652 43.374 81.235
H 57.941 88.133 39.111
H 41.910 129.776 30.976
H 99.172 90.946 84.219
H 15.803 0.724 96.922
H 10.794 31.553 128.600
H 125.595 119.772 75.824
H 59.310 60.104 44.166
H 125.756 106.077 128.950
H 39.115 75.381 88.669
H 49.872 75.943 25.547
H 40.803 17.543 83.561
H 43.439 55.229 49.474
H 6.857 116.461 94.572
H 42.124 116.831 87.831
H 128.917 60.218 14.249
H 15.808 97.041 75.237
H 28.185 71.187 68.875
H 111.511 6.900 14.697
H 57.538 18.124 128.537
H 25.773 80.552 57.675
H 101.618 6.842 42.171
H 61.070 14.772 83.353
H 69.448 107.485 57.497
H 38.353 41.066 30.635
H 121.288 103.833 44.650
H 58.478 13.144 76.619
H 94.758 29.634 57.462
H 87.730 57.544 71.571
H 25.330 103.350 14.250
H 61.193 37.845 13.701
H 111.221 26.026 61.005
H 79.659 35.050 62.356
H 68.961 57.826 47.211
H 33.283 117.803 66.232
H 91.174 69.422 37.188
H 62.224 107.018 113.879
H 122.303 28.069 44.878
H 15.463 128.473 82.031
H 50.340 37.529 69.213
H 106.109 108.132 37.209
H 23.086 94.006 54.213
H 23.654 78.565 14.630
H 12.417 1.567 26.921
H 62.271 21.100 8.929
H 64.026 117.409 1.495
H 29.650 117.172 82.451
H 107.961 118.210 28.437
H 96.140 33.932 121.996
H 124.429 20.828 105.593
H 6.127 77.922 62.651
H 77.945 98.789 113.103
H 7.902 103.281 15.761
H 117.342 82.477 40.323
H 112.469 23.451 28.024
H 42.366 53.799 28.427
H 119.562 57.254 123.737
H 32.923 60.912 104.208
H 128.614 58.466 61.101
H 122.287 56.186 57.258
H 123.909 64.595 16.410
H 122.389 65.192 46.892
H 117.091 2.228 123.191
H 11.376 9.815 122.494
H 62.136 23.362 127.694
H 43.578 122.374 59.734
H 47.831 74.534 118.368
H 127.411 90.445 47.880
H 112.267 120.162 70.580
H 92.502 113.295 88.983
H 84.556 49.493 78.053
H 31.614 15.584 33.609
H 58.011 44.793 91.257
H 49.729 65.632 37.811
H 11.573 93.183 29.134
H 60.507 77.214 87.441
H 53.917 36.283 116.061
H 83.756 32.244 99.852
H 69.785 54.570 12.661
H 28.881 13.705 90.640
H 97.192 56.647 7.058
H 22.092 122.838 115.949
H 51.774 18.387 57.651
H 56.358 2.540 93.469
H 85.467 76.256 104.903
H 106.706 27.839 9.133
H 47.941 114.568 100.818
H 33.198 95.349 73.666
H 35.944 93.684 36.861
H 58.285 82.200 1.367
H 52.745 4.882 39.657
H 11.215 70.920 119.658
H 111.066 63.863 44.744
H 0.287 83.799 41.864
H 50.830 80.884 23.986
H 72.947 58.466 48.951
H 108.911 95.042 20.558
H 118.512 0.250 31.614
H 17.819 44.379 19.239
H 36.553 52.059 61.540
H 35.080 8.837 70.273
H 82.340 85.273 3.728
H 13.762 86.874 13.334
H 8.657 58.719 47.416
H 87.535 5.240 29.291
H 37.074 42.285 1.031
H 71.615 1.690 39.073
H 118.277 20.565 82.987
H 59.350 120.242 57.290
H 26.345 129.435 94.113
H 16.857 68.667 39.813
H 114.648 20.924 83.706
H 124.486 118.148 117.064
H 86.267 39.396 9.737
H 22.341 116.167 92.028
H 13.567 126.364 66.286
H 22.335 62.349 51.894
H 27.804 82.282 68.392
H 35.635 104.360 70.045
H 44.127 20.516 64.929
H 20.015 119.025 64.340
H 118.655 41.584 59.833
H 67.778 116.785 16.503
H 51.821 10.968 118.864
H 106.152 52.073 86.949
H 70.595 79.532 110.784
H 128.242 10.516 73.826
H 117.423 51.548 33.101
H 17.054 81.279 27.433
H 49.184 52.162 81.178
H 124.184 128.514 38.861
H 34.387 93.634 89.648
H 35.276 122.977 104.179
H 25.821 64.552 11.998
H 68.244 74.023 23.574
H 9.695 23.410 63.415
H 7.271 22.625 25.234
H 55.784 69.708 47.777
H 83.901 121.167 30.280
H 128.703 43.377 77.806
H 46.660 88.451 110.916
H 103.070 80.840 73.525
H 19.847 105.747 127.850
H 82.365 75.587 19.317
H 35.968 46.868 24.922
H 128.751 120.025 48.370
H 18.870 51.425 21.360
H 69.968 23.186 6.376
H 79.864 49.531 88.852
H 67.925 81.592 41.404
H 75.690 64.294 77.261
H 0.999 125.437 30.564
H 9.969 38.327 90.082
H 121.255 109.740 42.470
H 108.182 7.071 12.068
H 24.225 102.410 94.152
H 17.048 92.057 99.031
H 24.812 87.191 52.728
H 9.543 67.269 64.034
H 114.648 72.825 109.232
H 58.923 93.020 126.082
H 2.745 58.670 55.881
H 101.409 2.410 75.381
H 36.247 61.955 93.243
H 81.886 32.006 26.703
H 110.585 65.980 127.343
H 86.258 29.337 22.017
H 42.154 99.279 59.834
H 73.831 77.377 22.693
H 44.612 38.285 121.717
H 0.982 124.303 18.354
H 70.737 34.132 39.574
H 99.146 89.837 99.501
H 24.576 26.359 98.503
H 15.767 117.936 120.085
H 65.669 91.428 43.483
H 82.780 3.253 28.507
H 58.982 63.728 128.145
H 129.857 16.003 35.900
H 10.736 44.384 123.359
H 74.072 5.194 67.682
H 121.303 126.463 118.542
H 98.704 32.703 117.072
H 38.632 114.092 5.382
H 57.097 44.610 36.128
H 47.067 63.136 108.736
H 80.234 117.958 108.772
H 18.997 54.959 69.292
H 33.249 73.617 126.649
H 29.279 101.993 129.343
H 33.027 111.288 22.607
H 119.861 39.548 36.141
H 117.616 37.852 28.872
H 40.214 87.550 2.810
H 19.996 14.421 68.032
H 6.667 119.684 60.881
H 79.978 26.088 90.461
H 3.117 10.206 118.641
H 27.956 63.742 68.005
H 24.098 76.635 33.966
H 85.244 33.441 56.225
H 65.099 2.520 14.125
H 11.497 58.548 69.878
H 126.981 44.843 23.251
H 125.735 69.628 125.145
H 45.722 9.680 59.021
H 127.258 9.300 61.857
H 110.344 27.428 102.981
H 8.405 40.913 22.188
H 126.666 78.891 36.260
H 119.923 72.003 46.289
H 92.134 87.749 125.092
H 7.958 114.042 84.739
H 19.961 52.989 7.393
H 113.166 13.028 28.506
H 92.128 98.925 28.214
H 20.185 3.273 10.385
H 114.706 23.286 52.465
H 100.105 127.800 113.427
H 119.961 108.159 45.351
H 82.832 91.948 53.664
H 78.438 126.213 42.461
H 119.668 128.353 76.303
H 118.956 96.677 93.436
H 14.709 97.016 23.264
H 98.410 7.771 113.883
H 24.298 111.560 116.418
H 13.317 15.058 126.764
H 127.948 12.518 82.681
H 48.008 7.667 110.731
H 86.266 7.871 58.931
H 52.884 128.049 129.292
H 29.459 99.200 86.156
H 56.462 74.851 53.325
H 5.100 98.134 103.439
H 121.565 67.741 8.657
H 120.466 32.638 17.139
H 18.884 76.851 50.799
H 92.045 10.838 2.140
H 124.834 11.803 44.932
H 2.442 114.850 110.089
H 76.511 20.622 104.197
H 8.793 59.425 41.058
H 129.628 127.106 108.040
H 72.673 23.671 26.167
H 91.798 110.001 124.736
H 98.910 72.129 11.125
H 36.161 55.023 19.815
H 30.787 48.211 79.746
H 127.102 16.534 38.126
H 129.559 114.807 124.218
H 68.789 30.650 26.190
H 104.504 121.084 80.197
H 89.233 114.881 33.457
H 75.592 73.665 119.976
H 42.089 17.940 13.491
H 36.804 8.448 39.825
