512
Highly Amorphous H Cluster with Extra Atoms
H 68.400 72.200 68.400
H 68.400 76.000 72.200
H 72.200 64.600 60.800
H 64.600 64.600 72.200
H 72.200 64.600 72.200
H 64.600 64.600 60.800
H 64.600 72.200 72.200
H 68.400 64.600 64.600
H 72.200 72.200 72.200
H 72.200 64.600 68.400
H 64.600 68.400 60.800
H 64.600 68.400 72.200
H 68.400 68.400 68.400
H 68.400 64.600 60.800
H 64.600 60.800 60.800
H 68.400 72.200 72.200
H 72.200 68.400 60.800
H 64.600 64.600 64.600
H 64.600 64.600 76.000
H 64.600 72.200 76.000
H 68.400 64.600 68.400
H 64.600 68.400 68.400
H 71.346 92.975 78.359
H 70.835 55.075 83.966
H 56.886 115.930 125.276
H 49.847 102.924 68.756
H 73.846 120.328 9.235
H 11.327 2.628 108.241
H 101.160 113.102 127.220
H 103.891 59.992 101.469
H 15.376 83.190 18.636
H 122.807 67.840 53.906
H 34.392 100.650 59.300
H 73.896 2.443 80.293
H 79.572 80.201 122.687
H 88.637 46.736 56.814
H 90.692 7.829 86.680
H 87.183 27.350 16.760
H 41.006 47.282 74.126
H 57.018 128.489 13.266
H 27.154 20.970 84.904
H 32.928 60.620 31.775
H 20.666 14.349 85.323
H 17.964 25.556 47.934
H 106.729 12.623 108.933
H 12.493 126.940 60.925
H 126.979 78.630 96.104
H 5.094 36.765 15.626
H 38.498 15.435 41.338
H 53.854 8.339 90.021
H 73.658 34.501 68.022
H 12.212 74.873 120.809
H 41.414 86.763 17.134
H 93.123 37.623 23.815
H 76.247 2.614 107.762
H 0.610 88.116 35.101
H 95.575 125.085 32.338
H 74.900 76.965 74.393
H 29.001 123.857 58.126
H 110.033 90.932 38.667
H 105.794 51.546 114.543
H 75.565 114.626 90.029
H 94.283 65.172 124.291
H 83.719 55.101 78.831
H 2.495 39.205 85.823
H 37.710 80.342 55.740
H 17.612 38.777 74.095
H 76.813 74.662 84.916
H 84.773 56.084 116.551
H 47.783 56.662 115.950
H 104.805 91.506 13.029
H 119.533 92.851 129.850
H 19.428 112.856 21.124
H 80.023 16.097 110.241
H 104.951 73.983 52.934
H 8.992 90.666 58.961
H 93.867 112.630 126.818
H 111.254 1.523 46.797
H 94.899 22.312 67.735
H 7.064 26.000 2.408
H 103.181 29.110 44.896
H 120.651 91.574 4.139
H 21.410 80.792 75.040
H 30.926 121.448 79.816
H 69.632 76.688 94.916
H 40.553 51.769 27.280
H 24.205 122.768 96.142
H 63.760 29.564 33.066
H 7.544 56.474 40.533
H 90.525 49.108 23.348
H 3.208 8.742 88.321
H 58.981 69.755 116.567
H 128.744 28.197 86.200
H 34.232 2.685 98.589
H 41.602 49.850 76.481
H 108.036 81.768 113.445
H 35.560 103.746 24.133
H 123.863 89.373 28.016
H 123.158 95.011 33.012
H 27.731 67.366 3.336
H 26.971 55.209 48.642
H 60.265 36.092 76.282
H 112.301 15.279 67.259
H 17.169 93.192 51.488
H 73.505 23.826 18.830
H 63.447 46.230 122.256
H 99.492 97.326 117.484
H 10.845 71.785 75.982
H 125.052 37.979 31.308
H 13.038 2.136 120.839
H 87.089 102.070 36.625
H 76.233 8.314 63.132
H 127.074 113.946 43.961
H 125.004 30.121 123.411
H 122.379 103.896 81.958
H 113.657 38.093 110.363
H 80.324 1.721 45.140
H 19.258 127.638 62.188
H 64.661 83.131 47.916
H 17.797 106.875 24.680
H 66.471 29.161 12.720
H 112.085 126.480 124.909
H 117.852 100.626 43.309
H 10.543 52.941 30.190
H 17.223 6.946 94.327
H 1.486 100.175 19.103
H 10.338 11.648 87.366
H 31.898 54.670 72.458
H 111.872 94.516 35.143
H 17.093 7.199 39.208
H 34.075 59.298 88.827
H 90.431 36.857 49.391
H 23.550 102.511 7.390
H 90.610 101.230 101.063
H 33.725 48.596 76.388
H 35.467 48.211 25.617
H 59.781 5.800 103.973
H 10.004 67.449 39.885
H 75.081 124.726 83.924
H 4.597 55.952 66.302
H 69.703 88.581 36.087
H 16.752 51.048 124.333
H 24.327 117.518 70.695
H 59.398 114.665 59.619
H 94.142 51.873 117.526
H 89.703 90.951 42.604
H 98.381 82.688 31.203
H 20.870 103.531 124.692
H 59.558 76.828 111.504
H 59.439 123.744 74.848
H 106.700 118.150 106.018
H 20.724 81.757 51.796
H 8.153 55.124 33.629
H 110.375 4.330 124.668
H 46.198 46.372 2.123
H 24.080 52.164 120.808
H 12.950 122.889 113.034
H 59.041 42.471 30.257
H 79.880 4.300 2.029
H 55.743 8.850 32.752
H 28.751 32.915 17.037
H 1.565 15.013 80.402
H 126.653 128.745 53.177
H 21.184 83.039 63.740
H 128.623 8.490 101.820
H 37.492 31.384 86.126
H 31.988 86.562 67.250
H 55.132 72.109 37.317
H 91.855 53.931 46.871
H 107.725 120.246 5.981
H 30.242 45.308 105.946
H 128.114 125.966 117.643
H 38.552 128.961 32.425
H 13.768 123.624 30.345
H 89.670 7.586 94.992
H 114.624 35.417 49.277
H 48.659 97.342 30.915
H 22.341 58.408 39.581
H 109.095 30.906 65.311
H 122.536 82.420 112.748
H 122.227 97.599 90.945
H 125.836 129.272 58.737
H 9.213 38.063 19.806
H 54.273 17.068 78.535
H 49.765 116.400 125.813
H 71.095 35.727 76.990
H 116.579 52.875 71.770
H 35.315 59.208 52.223
H 32.294 65.763 40.350
H 48.495 68.246 97.577
H 43.356 120.141 112.101
H 6.330 32.974 57.998
H 13.602 45.302 96.213
H 88.467 80.910 92.369
H 26.640 44.421 87.912
H 114.301 70.678 36.751
H 3.931 92.344 1.025
H 48.448 68.970 119.874
H 11.634 52.773 3.161
H 44.539 80.890 36.279
H 27.267 15.041 75.028
H 90.385 87.354 123.352
H 0.351 84.136 78.051
H 76.536 125.160 2.193
H 90.543 105.778 66.275
H 43.415 102.809 12.642
H 57.465 67.594 90.214
H 11.815 29.609 53.339
H 81.028 115.305 80.447
H 17.350 127.475 113.332
H 65.354 119.905 70.380
H 120.030 107.887 125.877
H 119.572 4.684 22.720
H 50.588 123.779 39.004
H 20.861 115.220 58.031
H 118.024 20.830 85.945
H 57.234 9.943 90.540
H 32.162 5.150 7.793
H 7.940 118.005 96.185
H 116.748 87.436 68.762
H 39.578 129.735 47.085
H 61.184 49.172 127.339
H 22.706 42.638 88.445
H 8.217 78.942 62.094
H 36.920 30.994 66.887
H 47.831 59.348 43.872
H 126.164 17.347 12.585
H 44.641 76.833 85.693
H 51.643 129.906 45.746
H 93.783 82.886 105.697
H 126.909 115.673 99.393
H 90.772 43.615 19.199
H 67.860 100.501 124.636
H 15.252 13.911 76.660
H 96.902 110.260 121.658
H 127.845 51.974 49.444
H 19.215 89.041 85.379
H 112.068 12.644 64.711
H 75.541 31.402 21.973
H 111.746 7.610 61.181
H 15.058 59.418 127.395
H 55.082 111.426 15.251
H 35.263 52.493 51.976
H 87.280 44.813 92.790
H 83.094 51.891 56.129
H 79.889 9.105 106.913
H 84.945 94.425 69.800
H 14.362 52.655 52.699
H 41.736 3.894 95.843
H 14.272 78.820 91.418
H 82.522 124.688 13.429
H 112.732 3.795 69.539
H 52.552 68.144 47.463
H 24.774 2.486 67.359
H 109.561 48.518 28.972
H 10.469 11.090 28.782
H 13.002 34.455 8.599
H 8.529 111.316 21.076
H 72.759 100.549 59.333
H 19.938 25.947 56.288
H 68.670 45.427 101.592
H 97.633 120.538 3.764
H 116.440 51.034 114.188
H 89.802 128.355 98.707
H 47.391 65.138 48.931
H 47.439 33.918 64.476
H 88.626 36.054 68.169
H 15.259 20.780 6.085
H 126.195 0.502 23.215
H 79.673 10.578 114.647
H 93.551 125.631 65.993
H 39.052 71.435 121.006
H 67.699 34.737 114.062
H 48.349 0.180 32.199
H 41.370 111.641 59.605
H 57.796 43.693 114.488
H 122.853 128.946 48.976
H 125.599 102.944 87.840
H 31.836 28.139 21.586
H 119.958 38.230 58.902
H 64.215 101.162 109.751
H 18.079 55.498 109.571
H 106.344 13.314 20.330
H 39.546 9.797 55.206
H 13.990 73.868 32.052
H 77.536 15.278 126.865
H 121.233 50.934 31.483
H 32.552 62.841 5.199
H 83.162 53.079 49.063
H 105.217 92.175 124.063
H 45.752 116.681 100.096
H 113.672 14.616 27.616
H 23.794 52.393 96.880
H 68.498 63.398 0.071
H 55.302 8.262 27.073
H 121.211 28.002 111.584
H 104.376 20.689 78.743
H 15.036 94.625 82.870
H 105.552 62.320 118.932
H 6.415 38.076 92.957
H 54.354 22.484 13.937
H 106.254 61.509 114.697
H 95.328 53.264 48.556
H 67.033 115.578 95.846
H 0.670 90.241 119.536
H 92.359 23.011 62.857
H 18.241 46.669 121.825
H 120.030 36.769 44.152
H 78.028 125.216 19.214
H 33.399 113.562 63.946
H 116.865 24.117 69.247
H 42.415 41.151 58.094
H 56.300 46.455 118.946
H 95.127 94.581 37.689
H 75.102 101.293 103.427
H 44.789 100.213 95.666
H 18.396 112.573 57.372
H 63.233 58.288 73.820
H 80.752 64.763 112.683
H 105.409 45.265 27.489
H 7.720 113.883 119.411
H 15.616 43.482 22.798
H 15.067 116.983 7.394
H 127.463 12.539 112.251
H 73.646 47.829 44.505
H 98.457 40.895 85.451
H 67.252 63.046 117.151
H 72.104 107.492 94.325
H 5.012 100.504 28.193
H 117.409 5.580 43.299
H 12.965 61.827 106.603
H 38.764 19.622 42.935
H 105.804 18.250 29.557
H 8.951 91.742 51.380
H 40.409 93.421 43.677
H 94.610 105.976 28.296
H 126.596 21.107 37.809
H 23.373 44.916 62.408
H 67.883 110.969 115.628
H 28.614 80.976 14.494
H 59.666 41.903 41.145
H 62.736 94.878 8.994
H 114.293 95.526 22.945
H 122.091 65.821 129.975
H 25.644 69.538 37.732
H 39.543 76.838 119.823
H 104.684 94.112 72.693
H 119.899 64.007 113.598
H 108.418 27.799 100.259
H 1.582 41.968 29.844
H 65.892 95.791 12.698
H 66.940 121.994 29.724
H 88.028 77.074 1.308
H 61.857 92.140 5.717
H 114.338 67.611 3.986
H 29.174 123.978 75.702
H 13.971 37.381 59.371
H 2.724 53.510 63.630
H 31.678 76.523 97.921
H 30.658 80.665 83.151
H 123.310 101.176 110.285
H 63.755 24.095 129.456
H 16.816 61.289 8.852
H 122.701 125.440 93.521
H 45.499 33.070 34.489
H 16.548 68.355 18.436
H 41.175 81.472 94.581
H 3.155 55.915 84.776
H 110.922 61.792 125.997
H 34.532 1.756 62.888
H 33.295 107.083 30.260
H 40.382 102.860 92.969
H 72.547 91.643 54.423
H 0.690 1.476 66.459
H 10.828 6.640 125.517
H 111.670 19.764 0.086
H 122.417 36.182 24.167
H 89.896 14.157 34.404
H 126.762 83.130 67.688
H 51.729 100.685 18.324
H 125.754 111.946 80.295
H 5.578 91.111 118.727
H 68.195 46.049 15.636
H 98.137 115.053 13.033
H 98.668 2.218 125.717
H 79.958 71.817 38.473
H 120.808 34.568 107.659
H 128.064 101.842 67.469
H 8.590 61.414 56.973
H 21.279 57.379 34.164
H 67.868 4.571 117.810
H 106.127 71.836 110.735
H 125.111 14.368 82.008
H 129.739 128.426 78.432
H 16.643 75.815 0.268
H 25.858 124.296 42.957
H 82.991 36.512 123.217
H 94.713 42.855 102.929
H 14.062 51.001 28.758
H 88.884 13.318 51.613
H 35.964 65.825 45.487
H 91.833 3.195 82.418
H 29.974 34.932 104.033
H 124.224 41.152 107.485
H 13.519 82.418 97.634
H 20.277 55.380 116.052
H 13.465 2.353 76.776
H 56.619 103.830 120.049
H 38.890 50.493 63.215
H 76.460 127.901 90.653
H 50.641 34.290 122.801
H 17.621 93.635 120.301
H 86.407 54.997 25.869
H 47.772 91.893 84.439
H 120.637 112.692 106.100
H 118.489 35.924 48.038
H 49.386 72.859 86.868
H 37.273 2.530 51.899
H 40.109 122.484 115.474
H 111.840 84.890 44.758
H 71.350 105.979 12.819
H 104.140 5.353 106.135
H 104.983 6.631 81.531
H 65.319 22.077 19.289
H 100.524 73.800 127.790
H 127.692 129.047 15.420
H 121.973 31.794 59.568
H 98.463 26.471 73.621
H 24.156 13.616 15.153
H 46.493 0.605 55.231
H 86.346 52.219 11.153
H 8.150 36.155 22.011
H 125.462 19.660 104.710
H 76.194 74.007 66.570
H 126.329 47.300 102.429
H 72.188 51.432 124.211
H 77.781 15.459 54.280
H 101.606 90.187 119.124
H 74.569 124.156 127.307
H 112.007 46.683 115.401
H 83.019 55.900 4.647
H 100.117 65.274 102.205
H 97.243 103.164 39.085
H 104.104 71.350 61.532
H 87.766 2.777 13.301
H 37.983 127.789 18.167
H 42.978 6.637 43.065
H 41.642 123.085 109.870
H 49.759 3.220 108.034
H 85.870 19.807 129.489
H 13.030 112.725 38.255
H 56.596 103.409 88.076
H 121.922 80.748 12.715
H 114.967 99.990 92.543
H 6.985 51.509 21.767
H 106.848 91.069 114.800
H 125.655 100.717 129.250
H 44.474 107.051 112.598
H 124.906 8.466 5.794
H 118.727 39.656 72.538
H 127.718 52.058 86.563
H 52.114 99.865 68.603
H 30.878 35.270 33.548
H 69.202 91.415 123.406
H 90.231 101.555 21.960
H 48.628 53.791 89.229
H 38.466 39.428 46.266
H 105.339 75.087 9.786
H 10.172 48.267 99.657
H 89.529 92.038 99.737
H 37.330 71.273 70.636
H 96.152 124.393 36.139
H 103.127 85.796 75.431
H 100.734 122.724 4.770
H 19.162 98.317 10.893
H 67.096 28.582 35.658
H 91.239 3.925 113.532
H 57.782 65.311 70.206
H 83.921 44.831 13.144
H 41.389 21.858 72.297
H 41.344 124.549 125.545
H 80.616 80.275 128.099
H 115.347 99.459 40.767
H 47.520 26.165 63.329
H 128.748 118.580 15.385
H 3.275 116.823 69.832
H 26.025 87.575 83.749
H 15.871 33.748 7.810
H 27.282 17.200 25.121
H 89.111 6.435 13.241
H 17.443 41.150 38.838
H 33.158 97.570 129.743
H 69.417 122.746 51.559
H 13.869 53.141 38.497
H 64.143 85.416 59.937
H 121.571 115.019 91.257
H 63.659 17.119 51.612
H 91.572 37.035 13.518
H 118.027 92.177 79.986
H 103.025 108.634 62.850
H 114.554 119.134 35.302
H 78.981 68.456 69.933
H 121.896 39.675 127.846
H 117.277 59.634 106.269
H 99.976 88.126 41.578
H 25.539 87.299 109.587
H 2.113 83.564 57.573
H 116.751 41.791 61.644
H 66.920 18.257 92.676
H 107.962 7.528 37.881
H 4.946 124.351 86.732
H 125.346 69.094 104.269
