512
Highly Amorphous H Cluster with Extra Atoms
H 76.000 60.800 64.600
H 68.400 60.800 60.800
H 57.000 64.600 87.400
H 53.200 64.600 68.400
H 60.800 64.600 76.000
H 53.200 64.600 79.800
H 60.800 64.600 87.400
H 53.200 64.600 91.200
H 72.200 64.600 60.800
H 72.200 60.800 68.400
H 64.600 64.600 72.200
H 72.200 64.600 72.200
H 64.600 68.400 53.200
H 64.600 72.200 72.200
H 68.400 64.600 53.200
H 68.400 68.400 72.200
H 72.200 53.200 64.600
H 57.000 57.000 72.200
H 60.800 68.400 79.800
H 57.000 64.600 72.200
H 57.000 60.800 79.800
H 57.000 68.400 91.200
H 57.000 64.600 83.600
H 64.600 60.800 87.400
H 53.200 64.600 76.000
H 53.200 57.000 76.000
H 60.800 64.600 83.600
H 53.200 64.600 87.400
H 53.200 68.400 72.200
H 72.200 57.000 68.400
H 72.200 60.800 64.600
H 72.200 64.600 68.400
H 72.200 64.600 57.000
H 64.600 64.600 68.400
H 64.600 68.400 72.200
H 64.600 72.200 68.400
H 53.200 60.800 79.800
H 68.400 64.600 60.800
H 72.200 49.400 64.600
H 68.400 53.200 64.600
H 57.000 57.000 68.400
H 57.000 57.000 79.800
H 53.200 57.000 72.200
H 53.200 64.600 72.200
H 72.200 60.800 60.800
H 60.800 64.600 79.800
H 53.200 68.400 91.200
H 72.200 64.600 53.200
H 64.600 64.600 64.600
H 64.600 64.600 76.000
H 64.600 72.200 64.600
H 68.400 64.600 57.000
H 64.600 64.600 87.400
H 68.400 68.400 53.200
H 68.400 64.600 68.400
H 53.200 60.800 87.400
H 72.200 53.200 68.400
H 72.200 49.400 60.800
H 53.200 72.200 72.200
H 60.800 72.200 79.800
H 57.000 60.800 72.200
H 57.000 64.600 76.000
H 125.714 71.140 126.449
H 92.926 90.705 28.092
H 126.916 0.810 32.888
H 56.523 101.320 25.699
H 112.189 127.842 21.299
H 77.653 1.168 50.254
H 5.741 124.365 56.699
H 123.367 102.220 112.618
H 22.512 9.743 78.097
H 21.836 95.339 53.098
H 68.628 121.884 67.820
H 14.065 20.569 70.876
H 68.173 82.889 52.194
H 84.475 51.597 81.109
H 99.763 23.267 48.825
H 65.329 89.267 32.978
H 72.116 81.241 116.415
H 47.171 82.882 24.888
H 64.713 23.718 119.390
H 56.137 107.924 54.181
H 117.607 52.627 43.053
H 74.378 109.908 111.932
H 77.439 11.006 77.645
H 31.909 95.237 116.305
H 66.915 78.463 8.459
H 70.210 16.794 79.893
H 47.275 99.809 6.309
H 14.276 88.923 66.905
H 74.313 109.682 63.406
H 105.319 66.332 120.474
H 86.701 19.334 47.392
H 112.551 45.537 24.573
H 61.441 51.062 80.461
H 56.780 33.920 53.621
H 54.474 117.315 127.350
H 81.064 10.814 95.290
H 88.229 107.383 45.169
H 7.654 79.537 16.122
H 98.739 103.275 53.121
H 122.694 22.591 122.536
H 60.514 99.189 97.867
H 127.557 126.526 5.212
H 2.076 70.628 4.404
H 85.473 69.537 86.653
H 57.374 35.421 123.457
H 94.675 0.822 12.913
H 82.120 37.445 52.991
H 101.599 46.039 120.355
H 93.659 71.750 23.525
H 53.247 99.175 128.804
H 9.575 17.518 96.206
H 108.392 11.540 107.824
H 102.275 89.469 44.190
H 57.790 47.624 109.261
H 42.682 41.935 121.588
H 119.598 125.928 104.981
H 11.299 11.818 72.421
H 111.304 114.946 82.790
H 124.255 19.745 28.806
H 43.224 33.385 40.587
H 15.398 48.794 3.871
H 69.912 122.958 57.866
H 81.140 79.536 121.339
H 95.487 107.227 43.660
H 117.970 24.077 53.038
H 95.869 43.349 115.197
H 111.885 21.465 29.997
H 6.817 111.634 44.099
H 51.122 35.148 16.020
H 59.402 30.513 73.210
H 26.359 66.480 123.282
H 48.338 124.048 7.437
H 71.345 77.974 125.028
H 120.274 66.418 98.733
H 126.868 95.745 124.014
H 122.056 62.630 85.786
H 23.380 56.813 112.596
H 75.040 36.329 15.963
H 30.141 16.249 30.391
H 49.865 5.577 109.032
H 52.495 73.758 82.697
H 17.269 10.752 20.349
H 128.209 13.587 54.945
H 113.758 75.956 2.279
H 115.531 49.939 21.805
H 43.833 77.239 4.907
H 83.630 79.314 29.743
H 55.382 25.157 2.773
H 75.910 57.896 109.467
H 25.877 57.278 86.769
H 8.884 46.194 89.185
H 31.859 47.317 75.057
H 53.227 113.982 111.785
H 108.417 55.415 24.717
H 83.052 55.660 65.755
H 84.637 122.192 105.072
H 16.018 117.970 88.019
H 41.525 94.899 61.745
H 72.934 74.337 19.694
H 47.058 56.646 7.504
H 94.085 42.485 61.991
H 123.248 112.836 35.503
H 52.035 74.260 15.533
H 103.504 42.088 15.032
H 91.936 66.938 3.523
H 73.162 99.347 4.036
H 85.486 32.518 56.586
H 9.382 69.190 122.048
H 39.626 8.260 110.269
H 123.187 63.839 118.106
H 118.123 95.487 108.073
H 21.061 109.920 54.034
H 37.269 73.042 111.474
H 56.312 10.110 37.346
H 37.090 90.617 124.159
H 71.519 32.970 91.407
H 19.205 8.012 84.371
H 48.848 58.605 9.618
H 62.359 78.799 127.727
H 2.791 67.177 63.280
H 81.268 110.913 64.744
H 74.436 65.332 103.537
H 117.902 41.946 94.172
H 85.118 48.527 104.454
H 90.357 63.944 74.350
H 123.362 83.222 82.536
H 49.483 101.648 113.410
H 40.234 42.434 87.516
H 37.551 10.623 37.453
H 81.411 69.564 124.969
H 105.386 125.240 90.135
H 104.223 97.680 122.343
H 44.259 42.175 1.550
H 8.815 125.018 61.741
H 15.813 14.025 67.288
H 84.695 108.435 74.288
H 43.407 91.105 24.400
H 43.263 15.721 88.490
H 70.155 57.132 29.935
H 109.680 51.540 118.599
H 35.333 82.843 95.873
H 22.006 23.670 99.405
H 11.624 62.186 10.767
H 125.287 108.576 30.209
H 109.644 97.178 14.098
H 34.697 83.440 91.929
H 44.671 16.768 64.333
H 99.319 67.746 25.272
H 39.564 98.459 59.891
H 99.482 22.882 89.041
H 103.946 115.370 38.783
H 118.580 76.139 38.242
H 4.024 86.407 123.422
H 74.685 39.037 42.869
H 63.787 127.916 55.971
H 50.337 64.290 28.823
H 37.797 105.311 116.074
H 48.129 62.673 117.456
H 92.744 59.509 124.555
H 115.110 60.130 25.144
H 108.687 116.691 87.354
H 104.701 2.472 80.681
H 104.913 37.161 20.198
H 115.760 101.704 46.568
H 75.097 29.629 43.071
H 89.258 98.954 114.350
H 85.657 103.925 24.642
H 93.483 127.512 118.141
H 101.957 116.090 59.161
H 41.305 83.052 76.113
H 5.247 35.088 75.979
H 8.437 8.158 48.929
H 15.753 53.913 87.734
H 61.390 2.414 120.707
H 32.622 0.961 57.533
H 110.579 121.373 17.314
H 8.983 108.511 109.751
H 118.935 102.763 108.729
H 106.307 5.175 22.892
H 5.666 0.118 126.958
H 129.917 72.219 19.238
H 17.703 118.496 119.306
H 76.019 93.900 77.949
H 92.683 127.182 56.525
H 10.037 10.128 85.038
H 7.655 14.041 114.798
H 121.941 14.760 28.721
H 128.787 119.555 81.665
H 61.615 102.681 63.410
H 126.837 99.874 82.817
H 14.570 93.651 15.271
H 19.021 112.121 74.538
H 73.187 90.796 109.892
H 123.080 8.401 5.226
H 10.083 127.140 69.432
H 48.823 79.204 15.764
H 50.543 38.489 87.728
H 20.354 126.496 5.350
H 13.380 21.484 128.677
H 33.580 89.305 88.151
H 49.206 38.742 96.890
H 10.662 2.852 52.736
H 42.018 9.196 11.219
H 65.093 124.163 90.952
H 23.391 46.553 88.540
H 10.066 25.567 9.047
H 61.223 70.892 112.190
H 4.146 17.958 36.049
H 53.831 39.555 128.768
H 46.025 118.001 129.154
H 37.953 20.095 110.876
H 1.897 16.313 25.486
H 2.996 82.624 2.145
H 35.546 72.395 87.341
H 15.849 70.073 92.232
H 5.998 60.217 48.111
H 9.384 75.552 10.043
H 89.005 65.412 112.339
H 62.165 110.835 46.496
H 62.102 78.271 89.855
H 39.703 6.357 90.871
H 98.686 114.244 78.986
H 103.723 23.679 44.605
H 51.864 43.641 42.523
H 83.588 108.496 68.361
H 94.831 76.970 91.703
H 77.954 17.933 111.901
H 21.857 35.791 69.487
H 88.123 120.704 19.029
H 6.332 79.702 74.559
H 94.816 23.749 101.840
H 8.342 16.795 23.123
H 11.428 5.617 84.220
H 127.031 54.587 19.706
H 38.427 31.772 93.022
H 80.844 79.474 128.005
H 35.868 81.399 51.491
H 95.843 46.982 107.740
H 35.965 89.996 27.318
H 98.916 67.415 30.791
H 96.524 15.151 92.694
H 99.483 69.851 69.317
H 98.698 73.605 9.702
H 86.355 47.402 46.477
H 89.049 40.402 13.170
H 42.981 15.401 126.880
H 110.386 82.764 9.408
H 56.967 116.258 80.070
H 51.053 48.476 22.890
H 0.396 70.019 86.706
H 26.897 76.191 53.049
H 14.972 69.215 107.846
H 78.370 51.511 3.046
H 33.269 78.599 89.281
H 42.688 26.238 100.085
H 11.819 54.097 80.051
H 65.922 7.112 27.029
H 22.561 66.510 26.738
H 97.437 11.092 51.331
H 114.741 123.693 40.535
H 26.693 2.674 90.895
H 9.433 129.644 39.011
H 125.148 94.083 53.617
H 41.800 87.230 120.973
H 34.718 83.865 56.406
H 5.018 6.645 5.917
H 6.010 39.911 103.679
H 122.699 53.424 100.789
H 115.354 33.346 81.574
H 123.992 74.851 93.955
H 15.375 52.922 46.409
H 101.484 17.853 99.674
H 71.288 83.246 121.147
H 99.704 69.765 35.536
H 50.747 30.194 33.701
H 84.308 49.426 126.318
H 29.276 92.133 35.148
H 114.032 66.511 115.426
H 115.544 129.235 99.350
H 81.664 62.899 113.814
H 63.452 122.855 97.263
H 73.181 34.540 42.795
H 20.190 99.841 86.800
H 96.631 60.749 124.307
H 20.882 41.190 59.153
H 5.418 93.672 36.682
H 30.101 80.903 110.980
H 3.990 67.925 57.583
H 127.896 46.672 13.041
H 126.668 59.865 62.814
H 68.510 32.977 84.354
H 93.398 78.887 76.432
H 54.768 84.718 9.235
H 47.451 2.727 74.633
H 122.536 121.139 92.748
H 69.004 101.315 30.349
H 37.654 44.459 58.278
H 114.798 103.685 66.903
H 67.430 23.047 48.066
H 89.145 114.728 78.965
H 92.561 102.924 86.580
H 108.318 88.715 113.140
H 113.818 119.346 97.618
H 1.372 71.973 12.298
H 111.835 60.688 1.743
H 46.058 105.572 104.870
H 120.295 81.333 93.367
H 12.838 39.611 14.401
H 77.691 58.743 25.239
H 91.284 108.055 21.671
H 111.913 38.254 106.351
H 81.250 67.121 57.227
H 113.266 76.787 103.277
H 125.272 22.735 32.817
H 82.852 23.580 19.296
H 122.877 115.769 114.499
H 33.102 68.298 63.391
H 4.725 4.427 20.370
H 52.032 22.243 5.813
H 54.950 100.094 4.189
H 79.343 44.915 126.370
H 96.203 115.247 101.386
H 83.270 8.307 55.294
H 7.782 122.636 79.117
H 23.585 33.613 44.513
H 83.702 36.896 122.714
H 36.206 112.247 71.085
H 15.247 45.399 39.827
H 128.894 54.445 82.175
H 45.278 109.580 63.662
H 67.600 112.996 27.969
H 54.513 88.733 80.403
H 87.870 125.275 33.806
H 37.263 109.826 61.323
H 0.800 116.473 115.537
H 49.889 50.364 125.517
H 33.972 22.159 88.236
H 9.812 128.935 30.368
H 47.378 121.611 80.702
H 1.249 120.170 42.707
H 18.244 33.198 72.815
H 98.988 70.523 62.915
H 98.256 121.034 63.704
H 12.499 18.125 121.299
H 121.930 95.059 79.035
H 113.808 102.179 94.206
H 71.418 94.079 46.319
H 111.338 104.458 71.112
H 7.993 52.661 61.137
H 22.766 77.426 4.428
H 37.364 19.433 71.684
H 17.641 23.675 124.163
H 33.734 67.839 30.313
H 3.183 93.108 47.508
H 61.313 1.902 24.093
H 72.254 88.022 83.789
H 123.182 47.100 112.066
H 97.614 90.752 109.691
H 115.835 90.620 8.114
H 24.676 73.236 72.152
H 126.019 73.543 105.369
H 82.048 11.812 46.664
H 61.682 19.156 60.566
H 76.393 103.651 85.590
H 110.584 111.788 8.376
H 120.536 55.638 81.527
H 36.944 38.041 64.085
H 122.742 56.352 125.067
H 122.055 101.520 54.494
H 50.460 101.394 52.369
H 8.886 112.819 40.162
H 87.008 100.224 90.205
H 126.134 66.209 121.698
H 5.999 59.439 69.849
H 76.806 29.432 105.303
H 116.420 123.235 47.786
H 129.102 49.942 33.281
H 92.403 4.026 26.139
H 17.127 41.808 116.268
H 17.286 126.701 98.279
H 106.871 61.627 121.586
H 78.523 117.373 42.820
H 124.831 127.387 52.527
H 21.190 126.653 31.338
H 103.964 122.454 3.091
H 94.423 8.231 68.093
H 111.244 10.499 27.555
H 101.982 91.484 98.943
H 67.051 35.576 44.417
H 93.322 128.457 40.190
H 30.170 41.857 9.463
H 22.818 107.319 14.599
H 20.424 109.180 31.074
H 122.833 38.537 23.633
H 52.529 0.876 54.990
H 71.022 127.089 93.539
H 50.159 48.238 54.121
H 30.025 22.284 23.012
H 102.696 129.068 66.519
H 36.947 76.934 21.486
H 73.449 41.156 99.339
H 126.319 127.889 8.269
H 26.066 31.736 125.023
H 97.143 21.292 3.463
H 44.666 33.230 109.106
H 123.029 34.097 104.419
H 40.883 55.305 0.057
H 83.457 8.095 63.997
H 20.048 111.670 25.428
H 59.820 70.977 48.886
H 17.541 26.709 68.575
H 11.078 113.927 106.698
H 12.256 10.275 61.716
H 4.603 129.072 12.882
H 68.623 65.724 74.618
H 50.408 69.420 53.812
H 11.249 15.197 120.603
H 53.057 89.230 110.208
H 15.130 17.458 84.641
H 38.535 63.174 56.432
H 43.759 97.768 97.384
H 22.496 58.513 115.564
H 122.881 50.929 109.129
H 44.930 18.267 95.791
H 60.289 4.471 62.171
H 32.528 55.563 43.232
H 92.883 14.442 70.856
H 48.862 59.122 84.448
H 65.651 71.257 92.331
H 48.566 94.920 89.087
H 41.294 83.040 59.363
H 46.691 87.503 22.219
H 21.532 40.862 113.533
H 28.221 64.257 122.074
H 5.201 78.408 89.534
H 27.771 126.312 30.632
H 105.339 78.386 62.194
H 45.148 111.791 54.916
H 8.882 21.239 92.864
H 32.655 69.014 113.151
H 10.618 20.696 125.236
H 119.961 122.100 42.552
H 43.171 51.042 117.297
H 18.396 67.483 34.272
H 35.246 9.512 51.240
H 7.445 59.720 91.988
H 37.531 44.322 10.213
H 123.407 9.565 99.999
H 85.899 22.636 13.564
H 33.102 29.377 58.461
